P (mp-1094075)
1.0
   5.5914502099999996   -0.7001647700000000    0.0000163500000000
  -0.8276073500000000    6.2712817400000000   -0.0000600600000000
   0.0000677000000000   -0.0001986200000000   19.6324366599999998
P
10
direct
   0.1457963700000000    0.6895901400000000    0.5873932900000000 P
   0.1722993100000000    0.3613995500000000    0.5570255700000000 P
   0.1722979200000000    0.3613929900000000    0.4429717999999990 P
   0.1458016200000000    0.6895822300000000    0.4126047300000000 P
   0.2271261700000000    0.9127918800000000    0.4999993800000000 P
   0.5428653400000000    0.3304599700000000    0.4131135999999990 P
   0.7565435300000000    0.6585844400000000    0.4420029900000000 P
   0.7565418600000000    0.6585886300000000    0.5579956400000000 P
   0.5428666100000000    0.3304704700000000    0.5868848100000000 P
   0.6084892700000000    0.1251267000000000    0.4999992000000000 P
