O12
1.0
   5.1684939999999999    0.0000000000000000    0.0000000000000003
  -0.0000000000000003    5.1684939999999999    0.0000000000000003
   0.0000000000000000    0.0000000000000000    7.5491209999999995
O
12
direct
   0.9294910000000001    0.2689630000000000    0.5008420000000000 O0+
   0.0705089999999990    0.7310369999999990    0.0008420000000000 O0+
   0.7310369999999990    0.9294910000000001    0.7508420000000000 O0+
   0.2689630000000000    0.0705089999999990    0.2508420000000000 O0+
   0.7685940000000001    0.4297040000000000    0.9992019999999990 O0+
   0.2314059999999990    0.5702959999999990    0.4992019999999990 O0+
   0.5702959999999990    0.7685940000000001    0.2492019999999990 O0+
   0.4297040000000000    0.2314059999999990    0.7492019999999990 O0+
   0.5120400000000001    0.0095940000000000    0.2499430000000000 O0+
   0.4879599999999991    0.9904059999999991    0.7499429999999999 O0+
   0.9904059999999991    0.5120400000000001    0.4999430000000000 O0+
   0.0095940000000000    0.4879599999999991    0.9999429999999999 O0+
