P 
 1.0000000000000000
     3.2723769615398388   -1.2145165155310336    4.2362846226435584
    -1.5849873598396256    1.0753877804660488    1.5326037829770014
    -1.7006654619464894   -1.6656421866578053   -0.5900573861473578
 P  
   2
Direct
  0.2515713947020164  0.9850416958072643  0.7525556960040312
  0.7525516052979835  0.9850123041927350  0.2535323039959682
