P (mp-53)
1.0
   3.2402214300000001   -1.2006823799999999    4.1932682799999998
  -1.5756060100000000    1.0690292600000000    1.5235142900000000
  -1.6821249300000001   -1.6453715199999990   -0.5851066700000001
P
2
direct
   0.2514868600000000    0.9850429100000000    0.7524693900000000 P
   0.7526361400000000    0.9850110900000000    0.2536186100000000 P
