Li4GeS4 (mp-1222582)
1.0
   6.4586100000000002    0.0000000000000000    0.0000000000000000
   0.0000000000000000    7.8685580000000002    0.0000000000000000
   0.0000000000000000    0.0000000000000000   13.4411529999999999
Li Ge S
16 4 16
direct
   0.8310240000000000    0.0036469999999990    0.6561110000000000 Li
   0.6459420000000000    0.5070370000000000    0.1581140000000000 Li
   0.1689760000000000    0.5036470000000000    0.3438890000000000 Li
   0.3540580000000000    0.0070370000000000    0.8418859999999990 Li
   0.1459420000000000    0.0070370000000000    0.3418859999999990 Li
   0.3310240000000000    0.5036470000000000    0.8438890000000000 Li
   0.8540580000000000    0.5070370000000000    0.6581140000000000 Li
   0.6689760000000000    0.0036469999999990    0.1561110000000000 Li
   0.6496320000000000    0.7470780000000000    0.9327820000000000 Li
   0.8503680000000000    0.7470780000000000    0.4327820000000000 Li
   0.3503679999999990    0.2470780000000000    0.0672180000000000 Li
   0.1496320000000000    0.2470780000000000    0.5672180000000000 Li
   0.5127840000000000    0.2892960000000000    0.7021720000000000 Li
   0.4872160000000000    0.7892960000000000    0.2978280000000000 Li
   0.0127840000000000    0.7892960000000000    0.7978280000000000 Li
   0.9872160000000000    0.2892960000000000    0.2021720000000000 Li
   0.8492769999999999    0.2503340000000000    0.9101300000000001 Ge
   0.6507229999999991    0.2503340000000000    0.4101300000000001 Ge
   0.1507230000000000    0.7503339999999999    0.0898700000000000 Ge
   0.3492770000000000    0.7503339999999999    0.5898700000000000 Ge
   0.7155969999999990    0.4757010000000000    0.8275889999999990 S
   0.7720319999999991    0.0166500000000000    0.3309090000000000 S
   0.2844029999999990    0.9757009999999990    0.1724109999999990 S
   0.2279679999999990    0.5166500000000001    0.6690910000000000 S
   0.2720320000000000    0.5166500000000001    0.1690910000000000 S
   0.2155969999999990    0.9757009999999990    0.6724110000000000 S
   0.7279679999999999    0.0166500000000000    0.8309090000000000 S
   0.7844030000000000    0.4757010000000000    0.3275889999999990 S
   0.6924500000000000    0.7516440000000000    0.5931830000000000 S
   0.8075500000000001    0.7516440000000000    0.0931830000000000 S
   0.3075500000000000    0.2516440000000000    0.4068170000000000 S
   0.1924500000000000    0.2516440000000000    0.9068170000000000 S
   0.7665879999999990    0.2556150000000000    0.5672769999999990 S
   0.7334120000000000    0.2556150000000000    0.0672770000000000 S
   0.2334119999999990    0.7556149999999990    0.4327229999999990 S
   0.2665880000000000    0.7556149999999990    0.9327230000000000 S
