Ba4
1.0
   4.4086387000000000    0.0000000000000000    0.0000000000000003
  -0.0000000000000005    7.9977139500000654    0.0000000000000005
   0.0000000000000000    0.0000000000000000    7.4305148100000000
Ba
4
direct
   0.0000000000000000    0.3504037599999990    0.7500000000000000 Ba0+
   0.0000000000000000    0.6495962400000000    0.2500000000000000 Ba0+
   0.5000000000000000    0.8504037600000001    0.7500000000000000 Ba0+
   0.5000000000000000    0.1495962400000000    0.2500000000000000 Ba0+
