O16
1.0
   0.0000000000000000    7.3460302863151083    0.0000000000000000
   9.3995994199999995    0.0000000000000000    0.0000000000000000
   0.0000000000000000   -2.5152923924236958   -4.1459772915266067
O
16
direct
   0.1422609499999990    0.1384691399999990    0.6052813100000000 O0+
   0.8577390500000001    0.1384691399999990    0.8947186900000000 O0+
   0.8577390500000001    0.8615308600000001    0.3947186900000000 O0+
   0.1422609499999990    0.8615308600000001    0.1052813099999990 O0+
   0.3022191999999990    0.1140023099999990    0.8664695900000000 O0+
   0.6977808000000001    0.1140023099999990    0.6335304100000000 O0+
   0.6977808000000001    0.8859976900000001    0.1335304100000000 O0+
   0.3022191999999990    0.8859976900000001    0.3664695900000000 O0+
   0.6422609499999991    0.6384691399999991    0.6052813100000000 O0+
   0.3577390500000000    0.6384691399999991    0.8947186900000000 O0+
   0.3577390500000000    0.3615308600000000    0.3947186900000000 O0+
   0.6422609499999991    0.3615308600000000    0.1052813099999990 O0+
   0.8022191999999990    0.6140023100000001    0.8664695900000000 O0+
   0.1977807999999990    0.6140023100000001    0.6335304100000000 O0+
   0.1977807999999990    0.3859976900000000    0.1335304100000000 O0+
   0.8022191999999990    0.3859976900000000    0.3664695900000000 O0+
