S (mp-83)
1.0
   6.1773784200000001    0.0000105500000000   -0.0000008600000000
   0.0000291000000000   15.5370954200000000   -0.5479564600000000
  -0.0000027000000000    0.0291514900000000   15.5680780700000003
S
56
direct
   0.9358387600000000    0.5131109200000000    0.2153642200000000 S
   0.4358385700000000    0.9868730300000000    0.2846562200000000 S
   0.0641267500000000    0.4868499600000000    0.7846217300000000 S
   0.5641368100000000    0.0131577100000000    0.7153638500000000 S
   0.1992019600000000    0.6127904700000000    0.5733053300000001 S
   0.6991953800000000    0.8871943100000000    0.9266934900000000 S
   0.8007996900000001    0.3872038900000000    0.4267157500000000 S
   0.3007888200000000    0.1128107900000000    0.0732911800000000 S
   0.8652173900000000    0.8293157900000000    0.5824887800000000 S
   0.3652152100000000    0.6706705100000000    0.9174944100000000 S
   0.1347891000000000    0.1706879300000000    0.4175535800000000 S
   0.6347796700000000    0.3293317700000000    0.0824646100000000 S
   0.8596278500000000    0.6125653800000000    0.5562610800000000 S
   0.3596138800000000    0.8874188500000000    0.9437296500000000 S
   0.1403711000000000    0.3874411300000000    0.4437529100000000 S
   0.6403604100000000    0.1125747500000000    0.0562546300000000 S
   0.7405126800000000    0.7829166999999990    0.6880907200000000 S
   0.2405236400000000    0.7170723100000000    0.8118918800000000 S
   0.2595333200000000    0.2170760300000000    0.3119501400000000 S
   0.7595329100000000    0.2829412100000000    0.1880648500000000 S
   0.7315065100000000    0.6415668999999991    0.6696315200000000 S
   0.2315084700000000    0.8584204300000000    0.8303549600000000 S
   0.2684800800000000    0.3584265800000000    0.3303829100000000 S
   0.7684740900000000    0.1415882400000000    0.1696280800000000 S
   0.8386100900000000    0.5730055200000000    0.1074978700000000 S
   0.3386151300000000    0.9269725900000000    0.3925258100000000 S
   0.1613684600000000    0.4269682300000000    0.8924893800000000 S
   0.6613760100000000    0.0730375300000000    0.6074893800000000 S
   0.8632365600000000    0.5936385500000000    0.3176326100000000 S
   0.3632317300000000    0.9063524900000001    0.1823849400000000 S
   0.1367645400000000    0.4063268700000000    0.6823552400000000 S
   0.6367729700000000    0.0936805900000000    0.8176268900000000 S
   0.4984514100000000    0.5585019700000000    0.1119230100000000 S
   0.9984600100000001    0.9414839200000000    0.3880979900000000 S
   0.5015202200000000    0.4414902900000000    0.8880608800000001 S
   0.0015234300000000    0.0585160300000000    0.6119241900000000 S
   0.5235035700000000    0.5795954900000000    0.3292184700000000 S
   0.0235032700000000    0.9203993900000000    0.1707948200000000 S
   0.4764821800000000    0.4203867200000000    0.6707660500000000 S
   0.9764954700000000    0.0796216000000000    0.8292153300000000 S
   0.3773526600000000    0.6722978100000000    0.1450586700000000 S
   0.8773454900000001    0.8276942900000001    0.3549550600000000 S
   0.6226714300000000    0.3277029400000000    0.8549242200000000 S
   0.1226659800000000    0.1723063400000000    0.6450501600000000 S
   0.3937725400000000    0.6859741200000000    0.2863288600000000 S
   0.8937635600000000    0.8140197700000000    0.2136845200000000 S
   0.6062639500000000    0.3140194100000000    0.7136593800000001 S
   0.1062813100000000    0.1859932400000000    0.7863168300000000 S
   0.2900261100000000    0.7226771000000000    0.5153143800000000 S
   0.7899972000000000    0.7773070300000000    0.9846854500000001 S
   0.7099871400000000    0.2773156500000000    0.4847132999999990 S
   0.2099787500000000    0.2227023900000000    0.0152989600000000 S
   0.2056217300000000    0.8229768800000000    0.5964246900000000 S
   0.7056190600000000    0.6770128100000000    0.9035631300000000 S
   0.7943885100000000    0.1770229100000000    0.4035995500000000 S
   0.2943755200000000    0.3229929100000000    0.0964164800000000 S
