S 
 1.0000000000000000
     9.0405046761725050    1.6969188415076226    0.0001911373006462
    -1.9751271594362301    9.6767359768249221    0.0009826655679222
     0.0002923663559994    0.0017739752456175   14.0191311845190558
 S  
  32
Direct
  0.3412294014329369  0.6906636658830593  0.6419593770224316
  0.1843117140131970  0.3338329822002088  0.8840016623346016
  0.3158007221833505  0.1662870091603686  0.8840305398293943
  0.8377909969857890  0.5386974547723978  0.8939398626473075
  0.6622704813575401  0.9613676315839785  0.8939049482348377
  0.1622089685697840  0.4613025414674913  0.1060601262950611
  0.3377294714307569  0.0386323648353299  0.1060950341252808
  0.7305946491257707  0.5239939009080284  0.0228061747470237
  0.7693492161467744 -0.0240257598173776  0.0227977819080866
  0.2694053086694012  0.4760060975430133  0.9771938143045982
  0.2306507184409468  1.0240257491854903  0.9772022102530983
  0.7130957466562813  0.6512090836042689  0.8013215135600313
  0.7870705545335622  0.8488953530460976  0.8013181362026697
  0.2869042203906581  0.3487909089818809  0.1986784749067399
  0.2129294061402503  0.1511046446760722  0.1986818558170085
  0.8558751589132388  0.2853158537739418  0.6722726126035754
  0.6440696112024884  0.2146596563340734  0.6722934774515500
  0.1441246009848099  0.7146839091818675  0.3277272704339269
  0.3559301381897643  0.7853404167608548  0.3277063383824780
 -0.0066558867573411  0.2722225107803442  0.4506641167113640
  0.5066506557688391  0.2278105279220843  0.4507038796250062
  1.0066561001780123  0.7277778514731115  0.5493359353139452
  0.4933491721999390  0.7721892248500769  0.5492962116388483
  0.9789472163623679  0.1714507107986196  0.5794678612870742
  0.5209966648777303  0.3285131473551810  0.5794638044055013
  0.0210529204708024  0.8285490543906627  0.4205320500944759
  0.4790028758366317  0.6714871083048581  0.4205361831956466
  0.8412911743329471  0.1907297685233457  0.3580467050465191
  0.6587704825662766  0.3093360781016683  0.3580408299975338
  0.1587091184350158  0.8092705535921568  0.6419534354345281
  0.6841991954813754  0.8337129804193038  0.1159694449055477
  0.8156882248808192  0.6661670194084361  0.1159983312845281
