S (mp-96)
1.0
   8.4290852199999993    0.0525105800000000    0.0000000000000000
  -3.2779863699999998    7.9522170699999997    0.0000000000000000
   0.0000000000000000    0.0000000000000000   13.3806085499999998
S
32
direct
   0.3252065700000000    0.6796197500000000    0.6486180900000000 S
   0.1747934300000000    0.8203802500000000    0.6486180900000000 S
   0.6747934300000000    0.3203802500000000    0.3513819100000000 S
   0.8252065700000000    0.1796197500000000    0.3513819100000000 S
   0.4690433800000000    0.6631768300000001    0.4187798600000000 S
   0.0309566200000000    0.8368231700000001    0.4187798600000000 S
   0.5309566200000000    0.3368241700000000    0.5812201400000000 S
   0.9690433800000000    0.1631758300000000    0.5812201400000000 S
   0.5266509100000000    0.7863322100000000    0.5528153500000000 S
   0.9733490900000000    0.7136677900000000    0.5528153500000000 S
   0.4733490900000000    0.2136677900000000    0.4471846500000000 S
   0.0266509100000000    0.2863322100000000    0.4471846500000000 S
   0.3808396000000000    0.7981553100000001    0.3222396600000000 S
   0.1191594000000000    0.7018446900000000    0.3222396600000000 S
   0.6191603999999991    0.2018446900000000    0.6777603400000000 S
   0.8808395999999999    0.2981553100000000    0.6777603400000000 S
   0.2014567200000000    0.1213845900000000    0.2024971300000000 S
   0.2985432800000000    0.3786154100000000    0.2024971300000000 S
   0.7985432800000000    0.8786154100000000    0.7975028700000000 S
   0.7014567200000000    0.6213845900000000    0.7975028700000000 S
   0.2212095999999990    0.9804548999999991    0.9720524900000000 S
   0.2787904000000000    0.5195451000000000    0.9720524900000000 S
   0.7787904000000000    0.0195451000000000    0.0279475100000000 S
   0.7212096000000000    0.4804548999999990    0.0279475100000000 S
   0.3443344700000000    0.0400687300000000    0.1068464900000000 S
   0.1556655300000000    0.4599312700000000    0.1068464900000000 S
   0.6556655300000001    0.9599312700000000    0.8931535100000000 S
   0.8443344700000001    0.5400687300000000    0.8931535100000000 S
   0.3250567800000000    0.1796309500000000    0.8767897400000000 S
   0.1749432200000000    0.3203690500000000    0.8767897400000000 S
   0.6749432200000001    0.8203690500000000    0.1232102600000000 S
   0.8250567800000000    0.6796309500000001    0.1232102600000000 S
