O4
1.0
   0.0000000000000000    3.0062409886883392    0.0000000000000000
   4.1346995249058951    0.0000000000000000    0.0000000000000000
   0.0000000000000000   -1.3701567896689091   -3.8822570352758712
O
4
direct
   0.6784715755796531    0.3211446624367080    0.3427056661501240 O0+
   0.8215284244203470    0.3211446624367080    0.6572943338498760 O0+
   0.3215284244203470    0.6788553375632911    0.6572943338498760 O0+
   0.1784715755796520    0.6788553375632911    0.3427056661501240 O0+
