Li (mp-51)
1.0
   2.6538170000000001    0.0000000000000000    1.5321819999999999
   0.8846050000000000    2.5020419999999999    1.5321819999999999
   0.0000000000000000    0.0000000000000000    3.0643639999999999
Li
1
direct
   0.0000000000000000    0.0000000000000000    0.0000000000000000 Li
