P 
 1.0000000000000000
     3.1675579822031028    0.0000000000000003   -1.0142963294510636
    -0.0000000000000008    4.3951898035375141   -0.0000000000000039
     0.1062448595475604   -0.0000000000000049    5.7849913278958214
 P  
   4
Direct
  0.4027971587537255  0.9186719636785696  0.8055956810830148
  0.5972028412462747  0.0813280363214285  0.1944043189169864
  0.0972028412462740  0.4186719636785713  0.1944043189169861
  0.9027971587537255  0.5813280363214285  0.8055956810830145
