S 
 1.0000000000000000
     5.7095180650867947   -2.3732178025312840    0.0097653863914417
    -2.4913061034199266    5.5264636607265780   -0.0057253286260780
     0.0089587067384926    0.0054720525436670    5.7065027987061647
 S  
   4
Direct
  0.3490829382820614  1.0082836399174597  0.6439830081195158
  0.6516126664518802 -0.0065351031167217  0.6466009348130729
  0.0034282508497427  0.6616317014300404  0.3554117721600479
  0.9958771444162876  0.3366197617691601  0.3540032849073090
