P 
 1.0000000000000000
    -0.0000000000000000    0.0000000000000000    8.2746506606320462
    10.6791476229925522   -0.0000000000000000   -0.0000000000000001
    -0.0000000000000000   10.6791476229926516    0.0000000000000001
 P  
   4
Direct
 -0.0000000000000006  0.5000000000000000  0.5000000000000000
 -0.0000000000000004 -0.0000000000000000 -0.0000000000000000
  0.6221234678485035 -0.0000000000000000  0.5000000000000000
  0.3778765321514985  0.5000000000000000  0.0000000000000000
