Ti100
1.0
  11.9737280309275125    0.0000000000000000    0.0000000000000000
   1.5453829107675050   11.9799288661040340    0.0000000000000000
   1.3106185991145392    1.8090403928567311   12.2087510070658603
Ti
100
direct
   0.1216090599999990    0.7827972999999990    0.2670551899999990 Ti0+
   0.0331333000000000    0.3210449600000000    0.2330011799999990 Ti0+
   0.2827300699999990    0.3221253800000000    0.4903093600000000 Ti0+
   0.7604858400000000    0.3539652300000000    0.8449633500000000 Ti0+
   0.5461727900000000    0.6375905100000000    0.5739735299999991 Ti0+
   0.3013910100000000    0.2010325999999990    0.3147778599999990 Ti0+
   0.3876620899999990    0.7145555400000001    0.0889899799999990 Ti0+
   0.2570137000000000    0.8373788999999990    0.8921194400000000 Ti0+
   0.5581074100000000    0.0532055300000000    0.6168048699999991 Ti0+
   0.0381953600000000    0.1640537200000000    0.0782906799999990 Ti0+
   0.8124387500000000    0.7749588800000000    0.8481406899999990 Ti0+
   0.4403151999999990    0.2822815900000000    0.1242641199999990 Ti0+
   0.2082711899999990    0.4176263700000000    0.3009611199999990 Ti0+
   0.4430298800000000    0.3789172999999990    0.3212166700000000 Ti0+
   0.0531528199999990    0.4477380800000000    0.8148803400000000 Ti0+
   0.8129839800000001    0.4460941600000000    0.2035871199999990 Ti0+
   0.9652498200000000    0.2132169800000000    0.8456840900000000 Ti0+
   0.7221931300000000    0.2097714100000000    0.5335962099999990 Ti0+
   0.4726024199999990    0.9347079100000000    0.3618041600000000 Ti0+
   0.9132764800000001    0.6149865999999991    0.0324137899999990 Ti0+
   0.6573952000000001    0.2835352600000000    0.3285874799999990 Ti0+
   0.3182311000000000    0.8547958900000001    0.2619980500000000 Ti0+
   0.0599620800000000    0.4475137700000000    0.4912644100000000 Ti0+
   0.9883383600000000    0.9632212000000000    0.0532076399999990 Ti0+
   0.1299475199999990    0.7059091500000001    0.0661637599999990 Ti0+
   0.1807053500000000    0.6176421900000001    0.4422247400000000 Ti0+
   0.8726908099999990    0.3636558300000000    0.4147895100000000 Ti0+
   0.8820767800000000    0.2252067300000000    0.6403812999999999 Ti0+
   0.6108877100000000    0.8495575400000001    0.5113830000000000 Ti0+
   0.4491808600000000    0.4821931100000000    0.7312317999999991 Ti0+
   0.0235697499999990    0.8872854999999999    0.8577578000000000 Ti0+
   0.1065715999999990    0.4724501000000000    0.0347818599999990 Ti0+
   0.5862914900000000    0.1246503100000000    0.2280269299999990 Ti0+
   0.7087089999999999    0.0449077900000000    0.3972078599999990 Ti0+
   0.6461955400000000    0.8169314100000000    0.7100448399999990 Ti0+
   0.4277328700000000    0.9844532800000000    0.7929472699999991 Ti0+
   0.5045446700000000    0.3119103600000000    0.5454617099999990 Ti0+
   0.2653669300000000    0.6510741200000001    0.6831476099999990 Ti0+
   0.9642566200000000    0.6769009600000001    0.4284152700000000 Ti0+
   0.0396288400000000    0.6187805900000001    0.6342080199999991 Ti0+
   0.2264695799999990    0.2540889300000000    0.1128056099999990 Ti0+
   0.8591905300000000    0.5725749500000000    0.8005197499999991 Ti0+
   0.8582568700000001    0.1960634800000000    0.2503915099999990 Ti0+
   0.3933924500000000    0.5228726600000000    0.4960276799999990 Ti0+
   0.2531133700000000    0.0184374500000000    0.4633520100000000 Ti0+
   0.3732336199999990    0.0585551300000000    0.1706345399999990 Ti0+
   0.9131010900000001    0.7580602800000000    0.2089091000000000 Ti0+
   0.2933281300000000    0.1172147800000000    0.6347436599999990 Ti0+
   0.8444409400000000    0.8695541000000000    0.4824175100000000 Ti0+
   0.5279487199999990    0.7020228400000000    0.3370584099999990 Ti0+
   0.5928010100000001    0.7281407300000000    0.9480942299999990 Ti0+
   0.9423686200000000    0.9627689200000000    0.2823073699999990 Ti0+
   0.6629005900000000    0.4066518200000001    0.6379488299999990 Ti0+
   0.9595664200000000    0.8309003500000001    0.6715471799999990 Ti0+
   0.9297482300000001    0.0816498200000000    0.4534300200000000 Ti0+
   0.1705198000000000    0.2570623400000000    0.8780735199999991 Ti0+
   0.5337960500000000    0.3212965500000000    0.9014874500000000 Ti0+
   0.6455793599999990    0.3381586400000000    0.1001333000000000 Ti0+
   0.7115175100000000    0.8276409200000001    0.3171031399999990 Ti0+
   0.1655391400000000    0.0541278000000000    0.8455011499999990 Ti0+
   0.0654022500000000    0.6679854600000000    0.8458482800000000 Ti0+
   0.3380122000000000    0.7601650500000000    0.4811821899999990 Ti0+
   0.5565008899999990    0.5389857600000001    0.1804671099999990 Ti0+
   0.0914298599999990    0.8653392300000000    0.4700404600000000 Ti0+
   0.2370696900000000    0.4352752500000000    0.6676394399999991 Ti0+
   0.7544843900000000    0.9912514000000000    0.1507531599999990 Ti0+
   0.6356012700000000    0.5791895900000000    0.7768302699999990 Ti0+
   0.4011341899999991    0.9053102600000000    0.6061523499999990 Ti0+
   0.0992538999999990    0.2703792200000000    0.6636608199999990 Ti0+
   0.8041588500000000    0.1844947600000000    0.0257323999999990 Ti0+
   0.4227265099999991    0.9135038300000000    0.9898045999999990 Ti0+
   0.4436307400000000    0.7302345400000001    0.7729237499999990 Ti0+
   0.7854224900000000    0.5997837700000000    0.3663435499999990 Ti0+
   0.7802410399999991    0.6634126500000000    0.5870371499999990 Ti0+
   0.4777745500000000    0.1407381900000000    0.4311599699999991 Ti0+
   0.0219736699999990    0.5548977700000001    0.2550132699999990 Ti0+
   0.4978477099999991    0.5144228400000000    0.9761972600000001 Ti0+
   0.5517211900000000    0.8735699200000000    0.1459747299999990 Ti0+
   0.3646656400000000    0.1400814600000000    0.9516044200000000 Ti0+
   0.1855211099999990    0.8720005700000000    0.6834825099999990 Ti0+
   0.2847820700000000    0.6144700200000001    0.9164495699999990 Ti0+
   0.0433855699999990    0.0488584700000000    0.6491539899999991 Ti0+
   0.1370604599999990    0.0603119400000000    0.2768974899999990 Ti0+
   0.9182420700000000    0.3689007700000000    0.0055208499999990 Ti0+
   0.3050867300000000    0.4969829100000001    0.1111120499999990 Ti0+
   0.8383381599999991    0.0414200500000000    0.8693736699999991 Ti0+
   0.8875784999999990    0.4462838800000000    0.6432726799999990 Ti0+
   0.3931138600000000    0.2519893200000000    0.7461723499999990 Ti0+
   0.3042547799999990    0.3970579100000000    0.9029649500000000 Ti0+
   0.6415812300000000    0.9489119700000000    0.8780157999999990 Ti0+
   0.7842585700000000    0.0012919300000000    0.6616371799999990 Ti0+
   0.0973473099999990    0.2211782300000000    0.4473805600000000 Ti0+
   0.3306624299999990    0.6147023500000001    0.2809968499999990 Ti0+
   0.2064675600000000    0.9770131999999990    0.0720650299999990 Ti0+
   0.6505513599999990    0.1793782600000000    0.7619711499999990 Ti0+
   0.5919303100000000    0.1088429800000000    0.0132348499999990 Ti0+
   0.7225275700000000    0.5207995800000000    0.9924281900000000 Ti0+
   0.7117421300000000    0.6858058400000000    0.1561951599999990 Ti0+
   0.6189214400000000    0.4738740200000001    0.4045100499999990 Ti0+
   0.8193403600000000    0.8503053300000001    0.0194633000000000 Ti0+
