S 
 1.0000000000000000
     6.5767996587165243    0.0007874269162128   -0.0002027101423455
     0.0020007607964428   16.6916450697251442   -1.4359445364457442
    -0.0005063180668045   -0.8261596870581400   16.4834053127798299
 S  
  56
Direct
  0.9371860335602981  0.5031082580818788  0.2077104468572351
  0.1248351702416566  0.4217040336364111  0.6863520274079177
  0.6249339693694246  0.0783141555967185  0.8136491273070040
  0.5194087031471958  0.5499655483998435  0.1167946824959497
  1.0195013376050786  0.9500190070499381  0.3832012972213184
  0.4805842262210375  0.4500330665775363  0.8832039327565840
 -0.0195008063021447  0.0499812528178097  0.6168034634982410
  0.5571307476951629  0.5602066977301116  0.3268778847777185
  0.0571357078079910  0.9397745058520982  0.1731214013077776
  0.4428653287636423  0.4398010676209143  0.6731214950710874
  0.9428665075100464  0.0602236859545807  0.8268851065404886
  0.4085796070446029  0.6553218184934010  0.1669977589168880
  0.3750677821755166  0.9216801044535777  0.1863572216665408
  0.9085437840116607  0.8446940367973049  0.3330046618658942
  0.0914355592067973  0.1553094844770324  0.6670019019677274
  0.4150459642110238  0.6585193118079773  0.3019335874913098
  0.9150335233304815  0.8414926317807149  0.1980415168163820
  0.5849519902886164  0.3414870872230379  0.6980618305956275
  0.0849609320671408  0.1585073821598974  0.8019645282498472
  0.2622734300561532  0.7238424375408095  0.5085642255123334
  0.7623397595917832  0.7761635508761360  0.9914737313499395
  0.7377335188905670  0.2761571400488332  0.4914363281131641
  0.2376766709185373  0.2238405504127376  0.0085194057446233
  0.1491921347183995  0.8218865764792835  0.5824139113571629
  0.6492794726133678  0.6780648734691574  0.9175705358122606
  0.5914042826501668  0.3446766597518054  0.8329964384347041
  0.8751619813317776  0.5783018028140245  0.3136446748281639
  0.6586414840836171  0.0611615016976216  0.6122806290926406
  0.1585487418290182  0.4388338067588209  0.8877331486919140
  0.4371913153289461  0.9968515622407056  0.2923276020644279
  0.0628098501506377  0.4968956827867323  0.7922873054807765
  0.5628178149660427  0.0031390263221395  0.7076798895061875
  0.2274239398545569  0.6260539740634457  0.5708961215584002
  0.7275211093856915  0.8739256194748664  0.9290939501136157
  0.7725756451757859  0.3739466441328400  0.4291046461299473
  0.2724674424478153  0.1260798030364606  0.0709031814681648
  0.8293144658797497  0.8049145703040697  0.5650329781006438
  0.3292436573642880  0.6950970489038594  0.9349697456016149
  0.1706991300486715  0.1950886570496705  0.4349675361283868
  0.6707839285563745  0.3048947605476296  0.0650259132956057
  0.9109306117173732  0.6019520324153733  0.5614391516339001
  0.4109273584682037  0.8980628322346077  0.9385505195291075
  0.0890675572305995  0.3980517583895398  0.4385594277539430
  0.5890563094933772  0.1019324225849394  0.0614501759212605
  0.7193622189041218  0.7742513755139472  0.6679594975232815
  0.2194320287042948  0.7257746338053772  0.8320207140178064
  0.2806409388230175  0.2257526235078881  0.3320391987378516
  0.7805708092290716  0.2742169819806893  0.1679791730850630
  0.7823805629786674  0.6437992731357044  0.6677150452252155
  0.2824010695610381  0.8562023450770607  0.8322946245936421
  0.2176140032290333  0.3562037203835125  0.3322829504974480
  0.7175742611231642  0.1437917147577379  0.1677079783574819
  0.8414430557135725  0.5611673350941648  0.1122633379365630
  0.3413574696980030  0.9388292627766280  0.3877253179634463
  0.8508233406313851  0.1781134147314697  0.4175892997871252
  0.3507516006978391  0.3219378583860999  0.0824207962346815
