P 
 1.0000000000000000
     5.8028678458715603    0.1699412347011962    0.2102092965472850
     0.2392769457816249    6.8557505348207766    0.9248396303528713
     0.2152263601645144    0.2694289798919008    6.9133919974121207
 P  
   8
Direct
  0.2443341795559373  0.1671193252839201  0.1671193376478581
  0.7556658204440505  0.8328806747160671  0.8328806623521342
  0.5517147217735557  0.2729408227201214  0.2729408273107993
  0.4482852782264376  0.7270591772798660  0.7270591726892001
  0.2422180927285875  0.4713146850497151  0.2238277790527177
  0.7577819050702528  0.7761722315822042  0.5286853241200976
  0.7577819072714100  0.5286853149502662  0.7761722209472748
  0.2422180949297360  0.2238277684177743  0.4713146758798969
