AgI alpha-phase BCC superionic (Im-3m, #229)
1.0
   5.0400   0.0000   0.0000
   0.0000   5.0400   0.0000
   0.0000   0.0000   5.0400
Ag   I
2    2
Direct
  0.000000   0.000000   0.000000
  0.500000   0.500000   0.500000
  0.250000   0.750000   0.500000
  0.750000   0.250000   0.500000
