S 
 1.0000000000000000
     2.3004708360907173    0.0000005918309638    1.3281791010232298
     0.7668241700088613    2.1689102484690053    1.3281791010322106
     0.0000015310523391    0.0000010826280595    2.6563546083623497
 S  
   1
Direct
  0.0000000000000000  0.0000000000000000  0.0000000000000000
