O1
1.0
   1.7755912592058241    0.0000000000000000    0.0000000000000001
  -0.0000000000000001    1.7755912592058241    0.0000000000000001
   0.0000000000000000    0.0000000000000000    3.0530507000000000
O
1
direct
   0.0000000000000000    0.0000000000000000    0.0000000000000000 O0+
