S (mp-10869)
1.0
   2.5257106800000000    0.3903568100000000   -0.3425295800000000
  -0.4386808100000000    2.5177679199999998   -0.3425295800000000
   0.2801414400000000    0.3903568100000000    2.5333899700000000
S
1
direct
   0.0000000000000000    0.0000000000000000   -0.0000000000000000 S
