P 
 1.0000000000000000
     9.3254898127966257   -0.0001246767040999   -0.0001706500599784
    -0.0001000067322916    9.1740198474386698   -1.2191050471531952
    -0.0004256949030075    0.3938000007631207   24.4266895257519323
 P  
  84
Direct
  0.6008766669232394  0.9514992542299058  0.9081680163455248
  0.0925366372562501  0.3113454622727056  0.1832137254504287
  0.2876812462153780  0.7001126132356269  0.1188559720826515
  0.3528345679432278  0.2482348407160718  0.8324969888473083
  0.7882431718013765  0.1959755783773668  0.1186037903489554
  0.4791502413277388  0.5728501582548595  0.8937382416384944
  0.6853779315241126  0.7453118560638170  0.7950680233098898
  0.6519435536274979  0.9605028903207350  0.4559899549797186
  0.3195957702285131  0.8781220374935821  0.6686664276734133
  0.7995946533739439  0.1257372266166561  0.8192739021951656
  0.7882299178920437  0.3040437217867597  0.3813973609449618
  0.2117568560185043  0.8040244365612540  0.8813962224361436
  0.4163754212629788  0.8170456110755768  0.0579457997503316
  0.6803994369898549  0.3781145928119427  0.1686673808540879
  0.4163649493907175  0.6829450734121179  0.4420582694131659
  0.3568414439288823  0.2268996637239114  0.9227325239984523
  0.6471654710696514  0.7517651846340194  0.1675029781229533
  0.1735721995056808  0.0703735918431370  0.0641202150966431
  0.7123336132570310  0.2001111762308143  0.6188488556679954
  0.8223639945254902  0.9250360814393999  0.3313082432886317
  0.5456465403326163  0.1082058984550499  0.6684947202732929
  0.6431585444045730  0.7731003319089451  0.0772674560813498
  0.0577441149528029  0.6250550029789789  0.6799359407065786
  0.3837462079347819  0.4730904973806643  0.3192079713235454
  0.9245949406905514  0.3089010923213422  0.0592390644397516
  0.1735829463049389  0.4296140276444249  0.4358795950410304
  0.8223410884382382  0.5749510953301213  0.1686855246346813
  0.1430432415695930  0.1952750252310098  0.4054064114213288
  0.0753945921688730  0.8088950789224864  0.5592372643990176
  0.5208521034692464  0.0728472011017790  0.3937378008144781
  0.5208497586028843  0.4271496981682650  0.1062617407355019
  0.1430348608933077  0.3047368593810026  0.0946200462367969
  0.1776360357616427  0.0749638674122806  0.6686917505186457
  0.9074633802755865  0.6886545734657715  0.8167862637021629
  0.6431447246671907  0.7269017036174308  0.4227308315880666
  0.0754050244129934  0.6910989876667391  0.9407609431206841
  0.6162590711911413  0.9731026443790349  0.8192167641095215
  0.3196005590943737  0.6218854001181066  0.8313326193844783
  0.3146220820612480  0.2546881735296723  0.2049319760611886
  0.9246054271678126  0.1911048688805308  0.4407627393525762
  0.3146606433083761  0.2453383812701801  0.2950695203812956
  0.8264277326617746  0.9296264382230346  0.9358797796204099
  0.3991188302783202  0.4515165892766401  0.4081740629812859
  0.0924913213585477  0.1886661960430892  0.3167609754067432
  0.8569567419203850  0.8047249086573707  0.5945935821749345
  0.6853393511739222  0.7546615335498104  0.7049304685881355
  0.5456368789549123  0.3917992124743536  0.8315093248887119
  0.2004053133159558  0.8742627674561808  0.1807261002626767
  0.0577396671548227  0.8749924906696144  0.8200627877981999
  0.0427549538854045  0.9511583974204763  0.1226466770007637
  0.3568552625123169  0.2730982455122452  0.5772691785281009
  0.9075086516498363  0.8113337334337875  0.6832390137334303
  0.6162537495410602  0.5269094098457585  0.6807920268410766
  0.6804042433854878  0.1218778985707513  0.3313335874598569
  0.2117700981141798  0.6959562404075069  0.6186026365683446
  0.8569651054728689  0.6952631829751549  0.9053799402626971
  0.3480565635267361  0.0394971108177318  0.5440100241117750
  0.8264170201760463  0.5703858790220226  0.5641204115379131
  0.2004192545029642  0.6257078313919975  0.3192681045139224
  0.5836245609167978  0.1829544985481509  0.9420541974336368
  0.3480800032501101  0.4605055752912954  0.9559947324754123
  0.6519200525968989  0.5394943703697526  0.0440052850571743
  0.9572449978501633  0.0488415979002752  0.8773533106428856
  0.1283871365299116  0.4577444229687884  0.9215880739826612
  0.1776589088687225  0.4250489203598787  0.8313144804374537
  0.8716129151726471  0.5422556695120274  0.0784119422498113
  0.1284009025612624  0.0422405634270208  0.5784075446042251
  0.6471846449332965  0.7482298908279513  0.3324973663545494
  0.3528153704055600  0.2517700452843784  0.6675026678674651
  0.9572512758182506  0.4511437457786636  0.6226383533597212
  0.7123188078402468  0.2998874271545521  0.8811440199813130
  0.4543631984005938  0.6082007390598985  0.1684906417338073
  0.7995807039162706  0.3742920676101457  0.6807319077525227
  0.8715992033932610  0.9577593863099098  0.4215924396498081
  0.3837408695973302  0.0268973857475777  0.1807832381984410
  0.3991232601209027  0.0485008462319598  0.0918319948764796
  0.4543534650723580  0.8917940752466268  0.3315053118141200
  0.9422603670308476  0.1250075330126377  0.1799372208948825
  0.2876663843341696  0.7998886997328314  0.3811511509076168
  0.9422558782887372  0.3749449286511406  0.3200640461478939
  0.4791478946730376  0.9271528314218189  0.6062622200460135
  0.0427486646452185  0.5488561512303498  0.3773616533457407
  0.5836350306916175  0.3170548048418146  0.5579417414969845
  0.6008811317421143  0.5484832974698334  0.5918259396402499
