Li4GeS4 (mp-1222529)
1.0
   6.1637247100000003    0.0000000000000000    0.0000000000000000
   0.0000000000000000    7.7254301999999999    0.0000000000000000
   0.0000000000000000    0.0000000000000000   14.0307287899999995
Li Ge S
16 4 16
direct
   0.1832622800000000    0.2475741300000000    0.5727853800000000 Li
   0.3167377200000000    0.7524258700000001    0.0727853800000000 Li
   0.8167377200000000    0.7475741300000001    0.9272146200000000 Li
   0.6832622800000000    0.2524258700000000    0.4272146200000000 Li
   0.8096118600000001    0.2491749900000000    0.9283771400000000 Li
   0.6903881400000000    0.7508250100000000    0.4283771400000000 Li
   0.1903881400000000    0.7491749900000000    0.5716228600000001 Li
   0.3096118600000000    0.2508250100000000    0.0716228600000000 Li
   0.3730640000000000    0.0035479300000000    0.8361577000000000 Li
   0.1269360000000000    0.9964520700000000    0.3361577000000000 Li
   0.6269359999999990    0.5035479300000000    0.6638423000000000 Li
   0.8730640000000000    0.4964520700000000    0.1638423000000000 Li
   0.0141766500000000    0.7605142600000000    0.7486549400000000 Li
   0.4858233500000000    0.2394857400000000    0.2486549400000000 Li
   0.9858233500000000    0.2605142600000000    0.7513450600000000 Li
   0.5141766500000000    0.7394857400000000    0.2513450600000000 Li
   0.6501289800000000    0.0003138100000000    0.6610759200000000 Ge
   0.8498710200000000   -0.0003138100000000    0.1610759200000000 Ge
   0.3498710200000000    0.5003138100000000    0.8389240800000001 Ge
   0.1501289800000000    0.4996861900000000    0.3389240800000000 Ge
   0.7687894100000000    0.0005250900000000    0.8123622100000000 S
   0.7312105900000000    0.9994749100000000    0.3123622100000000 S
   0.2312105900000000    0.5005250900000000    0.6876377900000000 S
   0.2687894100000000    0.4994749100000000    0.1876377900000000 S
   0.2916105300000000    0.9989615200000000    0.6635610700000000 S
   0.2083894700000000    0.0010384800000000    0.1635610700000000 S
   0.7083894700000000    0.4989615200000000    0.8364389300000000 S
   0.7916105300000000    0.5010384800000001    0.3364389300000000 S
   0.7851667200000000    0.7647761500000000    0.5939596200000000 S
   0.7148332800000000    0.2352238500000000    0.0939596200000000 S
   0.2148332800000000    0.2647761500000000    0.9060403800000000 S
   0.2851667200000000    0.7352238500000000    0.4060403800000000 S
   0.2202901200000000    0.7379662700000000    0.9062197300000000 S
   0.2797098800000000    0.2620337300000000    0.4062197300000000 S
   0.7797098800000000    0.2379662700000000    0.5937802700000000 S
   0.7202901200000000    0.7620337300000000    0.0937802700000000 S
