S 
 1.0000000000000000
     5.6282080955630320  -11.0121211158279042    0.0455811254277615
     6.5775478202638791   11.5602226820801768    0.0810791672537859
     0.0430870682503317    0.0069718854540980    5.4291250901226782
 S  
  18
Direct
  0.2634233263687094  0.7538305949911525  0.6054444746184982
  0.8335427832424145  0.5380626725886190  0.5327609844822127
  0.6553518732176100  0.6493657177510528  0.2961261778613081
  0.9112255986477842  0.4074808179778663  0.1028788468414664
  0.4424066112299421  0.3530040437573754  0.2829808893572062
  0.4956520364820883  0.0698467190789969  0.1084292186616416
  0.3440700248263585  1.0164596108091122  0.3488510069750651
  0.9316634304867280  0.5636205411032096  0.2320780665836462
  0.5937551632679081  0.4962167789977104  0.0865254704524845
  0.3960454164733201  0.7140514178997927  0.4188680613887898
  0.6357940592701339  0.0647475517245503  0.3134794193940646
  0.3086366738315252  0.5358183043044882  0.5066249092024955
 -0.0066234037123901  0.3523628941551079  0.3496068109406647
  0.5825968640013927  0.7379398775958693  0.1564823913838093
  0.2168437390046301  0.8284227742149054  0.3354034384494234
  0.1867277742158863  0.4272742153439252  0.2341134409218493
  0.5008888201515497  0.3041293255653425  0.5658417692245737
  0.7079992089931760  0.1873661421405695  0.5655016232599673
