Ba2 Ti2 O6
1.0
   5.8070880000000002    0.0000000000000000    0.0000000000000004
   0.0000000000000009    5.8484559999999997    0.0000000000000004
   0.0000000000000000    0.0000000000000000    5.0325110000000004
Ba Ti O
2 2 6
direct
   0.5000000000000000    0.5033519999999990    0.0000000000000000 Ba2+
   0.0000000000000000    0.0033520000000000    0.0000000000000000 Ba2+
   0.5000000000000000    0.0089979999999990    0.5000000000000000 Ti4+
   0.0000000000000000    0.5089979999999991    0.5000000000000000 Ti4+
   0.5000000000000000    0.4903300000000000    0.5000000000000000 O2-
   0.2505700000000000    0.2382600000000000    0.5000000000000000 O2-
   0.7494300000000000    0.2382600000000000    0.5000000000000000 O2-
   0.0000000000000000    0.9903300000000000    0.5000000000000000 O2-
   0.7505700000000001    0.7382600000000000    0.5000000000000000 O2-
   0.2494300000000000    0.7382600000000000    0.5000000000000000 O2-
