Li (mp-1018134)
1.0
  -1.5393372699999990   -2.6662100700000000    0.0000000000000000
  -3.0786724400000001   -0.0000000300000000    0.0000000000000000
  -1.5393372400000001   -0.8887370300000000   -7.4564779899999998
Li
3
direct
   0.7770279200000000    0.7770279200000000    0.6689152500000000 Li
   0.2229720800000000    0.2229720800000000    0.3310847500000000 Li
  -0.0000000000000000    0.0000000000000000    0.0000000000000000 Li
