S (mp-561513)
1.0
   5.5305610700000001    0.0045173100000000   -0.9318963200000000
  -1.9628466599999990    9.7369841600000004   -0.9919730500000000
  -0.1111138000000000    0.0615016500000000   14.8371993199999999
S
28
direct
   0.0743671800000000    0.4311455600000000    0.7196655700000000 S
   0.5940170600000000    0.0515184700000000    0.6746715000000000 S
   0.3211015600000000    0.6286994600000000    0.9217828000000000 S
   0.7167069700000001    0.3292186200000000    0.4764273000000000 S
   0.0061821800000000    0.7009123600000000    0.9353030300000000 S
   0.2068953400000000    0.4308401000000000    0.8574717500000000 S
   0.9256328200000000    0.5688544400000000    0.2803344300000000 S
   0.9938178200000001    0.2990876400000000    0.0646969700000000 S
   0.1046387100000000    0.7999472700000000    0.5912060600000000 S
   0.9027207700000001    0.9813438400000000    0.1113719000000000 S
   0.8953612900000000    0.2000527300000000    0.4087939400000000 S
   0.4685619200000000    0.8280673400000000    0.2157268800000000 S
   0.6788984400000000    0.3713005400000000    0.0782172000000000 S
   0.9479802600000000    0.8204138999999990    0.8313302500000000 S
   0.6553543100000000    0.5854194900000000    0.3556137700000000 S
   0.5314380800000000    0.1719326600000000    0.7842731200000000 S
   0.0520197400000000    0.1795861000000000    0.1686697500000000 S
   0.2832930300000000    0.6707813800000000    0.5235727000000000 S
   0.5299785900000000    0.9406902700000001    0.1104684600000000 S
   0.5167122800000000    0.6063453500000000    0.6255078200000000 S
   0.7298774000000000    0.0048663400000000    0.4212364300000000 S
   0.0972792300000000    0.0186561600000000    0.8886280999999990 S
   0.2701226000000000    0.9951336600000000    0.5787635700000000 S
   0.3446456900000000    0.4145805100000000    0.6443862300000001 S
   0.4059829400000000    0.9484815300000000    0.3253284999999990 S
   0.7931046600000000    0.5691598999999991    0.1425282500000000 S
   0.4700214100000000    0.0593097300000000    0.8895315400000000 S
   0.4832877200000000    0.3936546500000000    0.3744921800000000 S
