Ti100
1.0
  11.9045612336321192    0.0000000000000000    0.0000000000000000
  -0.1702304018172240   11.9091837718417093    0.0000000000000000
  -0.4198916790101940   -0.7947616239634571   12.4045819258510601
Ti
100
direct
   0.0866079999999980    0.6606576100000000    0.8737591299999991 Ti0+
   0.6943320900000001    0.0548608099999990    0.1830203099999990 Ti0+
   0.3458823800000000    0.1544716199999990    0.3593937899999990 Ti0+
   0.3880110199999990    0.3249263499999990    0.5232892100000001 Ti0+
   0.5095520500000000    0.5752184200000000    0.8448885499999991 Ti0+
   0.5584519800000000    0.2178702299999990    0.2898691399999990 Ti0+
   0.4555550900000000    0.6860230300000000    0.4415827799999990 Ti0+
   0.1653549400000000    0.8093011699999990    0.4825924699999991 Ti0+
   0.9232654500000000    0.9654412699999991    0.2928420399999990 Ti0+
   0.8029824000000000    0.2719841599999990    0.2078579799999990 Ti0+
   0.0408570300000000    0.2919298199999990    0.8836047499999991 Ti0+
   0.8729238200000000    0.5825403100000001    0.2638033599999990 Ti0+
   0.1479353100000000    0.5323523100000001    0.2154843000000000 Ti0+
   0.5191393100000000    0.7279752800000000    0.6824078100000001 Ti0+
   0.2438811400000000    0.6162087300000000    0.3873409799999991 Ti0+
   0.5681695800000001    0.3009735499999990    0.6772319299999990 Ti0+
   0.8028250600000000    0.2646732599999990    0.9727384199999991 Ti0+
   0.3260292700000000    0.9848894799999991    0.8234657799999990 Ti0+
   0.2880819500000000    0.8142542199999990    0.2304079799999990 Ti0+
   0.7516120500000000    0.4775090099999990    0.6806772400000000 Ti0+
   0.8937354500000000    0.0885890799999990    0.8833290899999990 Ti0+
   0.6786334200000000    0.9547502999999981    0.3553998799999990 Ti0+
   0.4273865100000000    0.7336141900000001    0.0494281599999990 Ti0+
   0.2613020400000000    0.2402664599999990    0.8738388599999991 Ti0+
   0.1071592200000000    0.0891486899999990    0.9723113299999990 Ti0+
   0.5630074300000000    0.5234174800000000    0.5784932500000001 Ti0+
   0.6934158700000000    0.1444988899999990    0.7788208699999991 Ti0+
   0.7976966800000000    0.4671776699999990    0.0823963799999990 Ti0+
   0.5429823100000000    0.1058804199999990    0.4966336499999990 Ti0+
   0.3502660700000000    0.5681919500000000    0.5821853100000001 Ti0+
   0.1684763900000000    0.9852583699999991    0.3383314999999990 Ti0+
   0.9117050600000001    0.6790361200000000    0.0309103499999990 Ti0+
   0.7740756200000000    0.9518798199999990    0.5570813499999990 Ti0+
   0.1259364699999990    0.1043260299999990    0.7442158999999990 Ti0+
   0.3937659400000000    0.9162245399999991    0.4223501599999990 Ti0+
   0.1641944400000000    0.3148343399999990    0.6845985099999990 Ti0+
   0.3760942200000000    0.4077647899999990    0.7339578200000000 Ti0+
   0.6775706300000001    0.4265533099999990    0.2935585799999990 Ti0+
   0.4570760900000000    0.4658559099999990    0.3703940199999990 Ti0+
   0.4944158800000000    0.1362266399999990    0.8654674899999991 Ti0+
   0.7557039800000001    0.1781492699999990    0.5859926800000000 Ti0+
   0.2037382200000000    0.3508972299999990    0.0689324900000000 Ti0+
   0.5912853200000000    0.2308255899999990    0.0710996999999990 Ti0+
   0.7915706200000000    0.1563908299999990    0.3867918899999990 Ti0+
   0.4716537400000000    0.9694587699999990    0.0239845000000000 Ti0+
   0.4523413000000000    0.0123788799999990    0.2381908999999990 Ti0+
   0.8825841999999990    0.4918478499999990    0.8790592899999990 Ti0+
   0.3647129300000000    0.1400629299999990    0.0608496499999990 Ti0+
   0.5357242300000000    0.8337268299999990    0.8687343199999991 Ti0+
   0.6282823800000000    0.3237602999999990    0.4722908199999991 Ti0+
   0.8447089200000000    0.7752285399999991    0.4057394199999990 Ti0+
   0.9049861100000001    0.7116678000000000    0.7845668999999991 Ti0+
   0.3114959800000000    0.7167724600000001    0.8329465999999991 Ti0+
   0.0546246600000000    0.8921645199999990    0.1110725099999990 Ti0+
   0.6886503100000000    0.0388896799999990    0.9579699199999990 Ti0+
   0.8454718600000000    0.8801357299999991    0.9804155699999991 Ti0+
   0.8625645000000000    0.2962677699999990    0.7459821099999990 Ti0+
   0.1515190200000000    0.4366822699999990    0.5123801499999990 Ti0+
   0.7388995900000001    0.7150246299999991    0.6307831899999990 Ti0+
   0.5623499400000000    0.4619304599999990    0.0950931299999990 Ti0+
   0.3365578900000000    0.5294523900000000    0.9930645199999991 Ti0+
   0.5191173100000001    0.8034439800000001    0.2533785099999990 Ti0+
   0.0105060999999990    0.6018291800000000    0.4527146699999990 Ti0+
   0.8113779000000000    0.8050855299999990    0.1986737000000000 Ti0+
   0.1890562999999980    0.6861808900000000    0.0703927399999990 Ti0+
   0.9371089500000001    0.9882192699999991    0.7037407399999991 Ti0+
   0.1529794599999990    0.6316386900000001    0.6586418700000000 Ti0+
   0.1673584500000000    0.1305022399999990    0.1726888099999990 Ti0+
   0.4012432700000000    0.3417919699999990    0.1694181000000000 Ti0+
   0.3707907900000000    0.1651584099999990    0.6793979800000001 Ti0+
   0.6021802800000000    0.8217405699999991    0.4857257299999990 Ti0+
   0.2481236200000000    0.9027709999999991    0.0132535699999990 Ti0+
   0.7714665300000000    0.5640611100000000    0.4638409399999990 Ti0+
   0.7189550200000000    0.6649822000000000    0.8527985899999990 Ti0+
   0.2339603400000000    0.0171338799999990    0.5591157700000000 Ti0+
   0.6505597100000000    0.6479489799999990    0.2905070399999990 Ti0+
   0.2310838100000000    0.3516301399999990    0.3108277199999990 Ti0+
   0.0039803500000000    0.9874953699999991    0.4929605299999991 Ti0+
   0.9112456800000001    0.0860058199999990    0.1060541299999990 Ti0+
   0.3885203800000000    0.5859442700000000    0.2081903699999990 Ti0+
   0.0500769600000000    0.7586108799999991    0.2876572399999990 Ti0+
   0.0018753800000000    0.2903465599999990    0.1159944399999990 Ti0+
   0.6407492200000000    0.8530179499999990    0.0697250299999990 Ti0+
   0.0389408000000000    0.4952912699999991    0.0299102199999990 Ti0+
   0.8625222600000000    0.3622444399999990    0.4925083099999991 Ti0+
   0.1540932899999990    0.8593080999999980    0.7092606199999990 Ti0+
   0.3494000200000000    0.8258612999999980    0.6258481200000000 Ti0+
   0.0125294900000000    0.1748295499999990    0.3236487799999990 Ti0+
   0.9999640400000001    0.4002806599999990    0.3249693799999990 Ti0+
   0.9783644200000000    0.4947992799999991    0.6707109699999990 Ti0+
   0.7425840400000000    0.8968709099999991    0.7737570299999991 Ti0+
   0.6585306600000000    0.6432157799999990    0.0553747599999990 Ti0+
   0.5379814500000000    0.9769120999999991    0.6818661899999990 Ti0+
   0.0449416999999990    0.8824575799999991    0.8876673099999991 Ti0+
   0.1761333100000000    0.2123944799999990    0.4799726599999991 Ti0+
   0.9827246400000000    0.1956955399999990    0.5823196100000000 Ti0+
   0.1828259100000000    0.4780331999999990    0.8322556999999999 Ti0+
   0.6593401500000000    0.4083582399999990    0.8750510399999991 Ti0+
   0.4458926300000000    0.3456265799999990    0.9363650499999990 Ti0+
   0.9621240700000000    0.7806787099999991    0.5973823100000000 Ti0+
