Ba2 Ti2 O6
1.0
   6.5887979999999997    0.0000000000000000    0.0000000000000004
  -0.0000000000000005    8.9473099999999999    0.0000000000000005
   0.0000000000000000    0.0000000000000000    3.7842099999999999
Ba Ti O
2 2 6
direct
   0.6441339999999991    0.0000000000000000    0.0000000000000000 Ba2+
   0.1441339999999990    0.5000000000000000    0.0000000000000000 Ba2+
   0.1058009999999990    0.0000000000000000    0.5000000000000000 Ti4+
   0.6058009999999990    0.5000000000000000    0.5000000000000000 Ti4+
   0.3820809999999990    0.0000000000000000    0.5000000000000000 O2-
   0.4439919999999991    0.6550290000000001    0.5000000000000000 O2-
   0.4439919999999991    0.3449709999999990    0.5000000000000000 O2-
   0.8820809999999991    0.5000000000000000    0.5000000000000000 O2-
   0.9439919999999991    0.1550290000000000    0.5000000000000000 O2-
   0.9439919999999991    0.8449709999999990    0.5000000000000000 O2-
