S (mp-555915)
1.0
   7.7587352699999999    0.0000000000000000    0.0000000000000000
   0.0000000000000000   11.6525953599999994    0.0000000000000000
   0.0000000000000000    0.0000000000000000   21.7409490599999984
S
72
direct
   0.2787454300000000    0.9448383600000000    0.0144601100000000 S
   0.9140133200000000    0.7107887900000001    0.0068122800000000 S
   0.1378845500000000    0.8083570400000000    0.8568547700000000 S
   0.7174087300000000    0.8217761100000001    0.9844459300000000 S
   0.4140133200000000    0.2892112100000000    0.4931877200000000 S
   0.5825669900000000    0.9448392500000000    0.5095788800000000 S
   0.5859866800000000    0.2107887900000000    0.9931877200000000 S
   0.3475316900000000    0.0414863000000000    0.3582287900000000 S
   0.3952882400000000    0.7429273100000000    0.4063737000000000 S
   0.7825912700000001    0.3217761100000000    0.0155540700000000 S
   0.7387089600000000    0.0485947500000000    0.6853923100000000 S
   0.8621154500000000    0.6916429600000000    0.3568547700000000 S
   0.7612910400000000    0.5485947500000000    0.3146076900000000 S
   0.7787454300000001    0.0551616400000000    0.4855398900000000 S
   0.9174330100000000    0.4448392500000000    0.4904211200000000 S
   0.2836080400000000    0.6597774700000000    0.3334065300000000 S
   0.5881760200000000    0.1796202200000000    0.8430735200000000 S
   0.4119477900000000    0.5881491900000000    0.1597846700000000 S
   0.5680226600000000    0.2507515300000000    0.1940343800000000 S
   0.2671887300000000    0.9257289400000001    0.1654877700000000 S
   0.7836080400000001    0.3402225300000000    0.1665934700000000 S
   0.4471266300000000    0.5161666200000000    0.8072831200000000 S
   0.0880522100000000    0.0881491900000000    0.8402153300000000 S
   0.7459143300000001    0.3125576600000000    0.8165151500000000 S
   0.6378845500000000    0.1916429600000000    0.6431452300000000 S
   0.7163919600000000    0.8402225300000000    0.8334065300000000 S
   0.2612910400000000    0.4514052500000000    0.1853913100000000 S
   0.6793852500000001    0.1102095900000000    0.9230292700000000 S
   0.0825669900000000    0.0551607500000000    0.9904211200000000 S
   0.8206147500000001    0.6102095900000000    0.0769707300000000 S
   0.0859866800000000    0.7892112100000001    0.5068122800000000 S
   0.6790898800000000    0.8441739100000000    0.5791642100000000 S
   0.3850685500000000    0.0090612300000000    0.0937602900000000 S
   0.3209101200000000    0.6558260900000000    0.0791642100000000 S
   0.7328112700000000    0.5742710600000001    0.6654877700000000 S
   0.3621154500000000    0.3083570400000000    0.1431452300000000 S
   0.2212545700000000    0.4448383600000000    0.9855398900000000 S
   0.8850685500000001    0.9909387700000000    0.4062397100000000 S
   0.2328112700000000    0.4257289400000000    0.8345122300000000 S
   0.0680226600000000    0.7492484700000001    0.3059656200000000 S
   0.1793852500000000    0.8897904100000000    0.5769707300000000 S
   0.1790898800000000    0.1558260900000000    0.9208357900000000 S
   0.1524683100000000    0.5414863000000000    0.6417712100000000 S
   0.1149314500000000    0.5090612300000000    0.9062397100000000 S
   0.3206147500000000    0.3897904100000000    0.4230292700000000 S
   0.0528733700000000    0.0161666200000000    0.1927168800000000 S
   0.9471266300000000    0.4838333800000000    0.6927168800000000 S
   0.6149314500000000    0.4909387700000000    0.5937602900000000 S
   0.2387089600000000    0.9514052500000000    0.8146076900000000 S
   0.8952882400000001    0.2570726900000000    0.0936263000000000 S
   0.1047117600000000    0.2429273100000000    0.5936262999999991 S
   0.5528733700000000    0.9838333800000000    0.3072831200000000 S
   0.7540856700000000    0.8125576600000001    0.1834848500000000 S
   0.9319773400000000    0.7507515300000001    0.8059656200000000 S
   0.4174330100000000    0.5551607500000000    0.0095788800000000 S
   0.0881760200000000    0.8203797800000000    0.6569264800000000 S
   0.2459143300000000    0.6874423400000000    0.6834848500000000 S
   0.9118239800000000    0.6796202200000000    0.1569264800000000 S
   0.8209101200000000    0.3441739100000000    0.4208357900000000 S
   0.7212545700000000    0.5551616400000000    0.5144601100000000 S
   0.2540856700000000    0.1874423400000000    0.3165151500000000 S
   0.2174087300000000    0.1782238900000000    0.5155540700000000 S
   0.2825912700000000    0.6782238900000001    0.4844459300000000 S
   0.4319773400000000    0.2492484700000000    0.6940343800000001 S
   0.9119477900000000    0.4118508100000000    0.3402153300000000 S
   0.7671887300000000    0.0742710600000000    0.3345122300000000 S
   0.6524683100000001    0.4585136999999990    0.8582287900000000 S
   0.5880522100000000    0.9118508100000000    0.6597846700000000 S
   0.4118239800000000    0.3203797800000000    0.3430735200000000 S
   0.8475316900000001    0.9585136999999990    0.1417712100000000 S
   0.2163919600000000    0.1597774700000000    0.6665934700000000 S
   0.6047117600000000    0.7570726900000000    0.9063736999999999 S
