O16
1.0
   0.0000000000000000    7.4717624391119672    0.0000000000000000
   9.2555123856725583    0.0000000000000000    0.0000000000000000
   0.0000000000000000   -2.4152442938321590   -4.0890116735565947
O
16
direct
   0.3591720506853660    0.3573742952432600    0.3960732146484240 O0+
   0.6408279493146330    0.3573742952432600    0.1039267853515750 O0+
   0.6408279493146330    0.6426257047567391    0.6039267853515751 O0+
   0.3591720506853660    0.6426257047567391    0.8960732146484240 O0+
   0.7042251021408461    0.8874199169252741    0.1352037670098830 O0+
   0.2957748978591540    0.8874199169252741    0.3647962329901160 O0+
   0.2957748978591540    0.1125800830747260    0.8647962329901161 O0+
   0.7042251021408461    0.1125800830747260    0.6352037670098830 O0+
   0.8591720506853661    0.8573742952432600    0.3960732146484240 O0+
   0.1408279493146330    0.8573742952432600    0.1039267853515750 O0+
   0.1408279493146330    0.1426257047567390    0.6039267853515751 O0+
   0.8591720506853661    0.1426257047567390    0.8960732146484240 O0+
   0.2042251021408460    0.3874199169252741    0.1352037670098830 O0+
   0.7957748978591530    0.3874199169252741    0.3647962329901160 O0+
   0.7957748978591530    0.6125800830747260    0.8647962329901161 O0+
   0.2042251021408460    0.6125800830747260    0.6352037670098830 O0+
