Ba8
1.0
   8.2623894958575796    0.0000000000000000    0.0000000000000005
  -0.0000000000000005    8.2623894958575796    0.0000000000000005
   0.0000000000000000    0.0000000000000000    7.6735412906857139
Ba
8
direct
   0.3181421100000000    0.1818578899999990    0.5000000000000000 Ba0+
   0.1818578899999990    0.3181421100000000    0.0000000000000000 Ba0+
   0.8181421100000000    0.3181421100000000    0.5000000000000000 Ba0+
   0.6818578899999991    0.1818578899999990    0.0000000000000000 Ba0+
   0.8181421100000000    0.6818578899999991    0.0000000000000000 Ba0+
   0.6818578899999991    0.8181421100000000    0.5000000000000000 Ba0+
   0.3181421100000000    0.8181421100000000    0.0000000000000000 Ba0+
   0.1818578899999990    0.6818578899999991    0.5000000000000000 Ba0+
