O4
1.0
   0.0000000000000000    3.0035769606482510    0.0000000000000000
   4.1243263900000002    0.0000000000000000    0.0000000000000000
   0.0000000000000000   -1.3876669147272120   -3.8528671525717120
O
4
direct
   0.6763781999999990    0.3206051999999990    0.3415259800000000 O0+
   0.8236218000000000    0.3206051999999990    0.6584740200000000 O0+
   0.3236217999999990    0.6793948000000001    0.6584740200000000 O0+
   0.1763781999999990    0.6793948000000001    0.3415259800000000 O0+
