GeS2 (mp-664137)
1.0
   0.0000000000000000    5.8262530000000003   11.3809450000000005
   3.7910969999999988    0.0000000000000000   11.3809450000000005
   3.7910969999999988    5.8262530000000003    0.0000000000000000
Ge S
6 12
direct
   0.5111390000000000    0.9899990000000000    0.9971470000000000 Ge
   0.2489019999999990    0.7482070000000000    0.7475649999999990 Ge
   0.4921780000000000    0.7268260000000000    0.2591210000000000 Ge
   0.5147160000000000    0.2648020000000000    0.7324689999999990 Ge
   0.9878540000000000    0.7375950000000000    0.7619200000000000 Ge
   0.5122479999999990    0.7657840000000000    0.7284689999999990 Ge
   0.2820740000000000    0.0684579999999990    0.2990900000000000 S
   0.3529670000000000    0.2937639999999990    0.0728859999999990 S
   0.9567059999999999    0.8973639999999991    0.9664280000000000 S
   0.1908649999999990    0.9586990000000000    0.8925320000000000 S
   0.8498439999999990    0.6912090000000000    0.9768469999999990 S
   0.4893690000000000    0.9727900000000000    0.6938980000000000 S
   0.2664670000000000    0.7713770000000000    0.4048020000000000 S
   0.5537500000000001    0.4075240000000000    0.7747740000000000 S
   0.7214459999999990    0.5142249999999990    0.9089680000000000 S
   0.8574189999999990    0.9043500000000001    0.5257100000000000 S
   0.3398629999999990    0.4022170000000000    0.5340779999999991 S
   0.7238239999999990    0.5369320000000000    0.4032929999999990 S
