Ba
 1.0000000000000000
     6.0489191295920808   -3.4923450877762989   -0.0000000000000305
     0.0000000000000000    6.9846901755525490    0.0000000000000099
     0.0000000000000000    0.0000000000000000    3.9975987446642391
 Ba 
   2
Direct
  0.3333333333333340  0.6666666666666655  0.4999999999999998
  0.6666666666666669  0.3333333333333329  0.4999999999999998
