Ba
 1.0000000000000000
    24.1956765183683231  -13.9693803511051957   -0.0000000000001218
     0.0000000000000000   27.9387607022101960    0.0000000000000397
     0.0000000000000000    0.0000000000000000   27.9831912126496754
 Ba 
 224
Direct
  0.0833333333333335  0.1666666666666664  0.0714285714285714
  0.5833333333333335  0.6666666666666663  0.2142857142857142
  0.6666666666666669  0.5833333333333333  0.2142857142857142
  0.5833333333333335  0.6666666666666663  0.3571428571428570
  0.6666666666666669  0.5833333333333333  0.3571428571428571
  0.5833333333333335  0.6666666666666663  0.4999999999999999
  0.6666666666666669  0.5833333333333333  0.4999999999999999
  0.5833333333333335  0.6666666666666663  0.6428571428571428
  0.6666666666666669  0.5833333333333333  0.6428571428571427
  0.5833333333333335  0.6666666666666663  0.7857142857142856
  0.6666666666666669  0.5833333333333333  0.7857142857142855
  0.5833333333333335  0.6666666666666663  0.9285714285714285
  0.6666666666666669  0.5833333333333333  0.0714285714285714
  0.6666666666666669  0.5833333333333333  0.9285714285714284
  0.6666666666666669  0.8333333333333331  0.0714285714285714
  0.5833333333333335  0.9166666666666664  0.2142857142857142
  0.6666666666666669  0.8333333333333331  0.2142857142857142
  0.5833333333333335  0.9166666666666664  0.3571428571428571
  0.6666666666666669  0.8333333333333331  0.3571428571428570
  0.5833333333333335  0.9166666666666664  0.4999999999999999
  0.6666666666666669  0.8333333333333331  0.4999999999999999
  0.5833333333333335  0.9166666666666664  0.6428571428571427
  0.6666666666666669  0.8333333333333331  0.6428571428571428
  0.5833333333333335  0.9166666666666664  0.7857142857142856
  0.6666666666666669  0.8333333333333331  0.7857142857142856
  0.5833333333333335  0.9166666666666664  0.0714285714285714
  0.5833333333333335  0.9166666666666664  0.9285714285714284
  0.5833333333333335  0.6666666666666663  0.0714285714285714
  0.5833333333333335  0.4166666666666664  0.9285714285714284
  0.5833333333333335  0.1666666666666664  0.2142857142857142
  0.6666666666666669  0.0833333333333333  0.2142857142857142
  0.5833333333333335  0.1666666666666664  0.3571428571428570
  0.6666666666666669  0.0833333333333333  0.3571428571428570
  0.5833333333333335  0.1666666666666664  0.4999999999999999
  0.6666666666666669  0.0833333333333333  0.4999999999999999
  0.5833333333333335  0.1666666666666664  0.6428571428571427
  0.6666666666666669  0.0833333333333333  0.6428571428571428
  0.5833333333333335  0.1666666666666664  0.7857142857142856
  0.6666666666666669  0.0833333333333333  0.7857142857142856
  0.5833333333333335  0.1666666666666664  0.9285714285714284
  0.6666666666666669  0.3333333333333333  0.9285714285714284
  0.6666666666666669  0.0833333333333333  0.9285714285714284
  0.6666666666666669  0.3333333333333333  0.0714285714285714
  0.5833333333333335  0.4166666666666664  0.2142857142857142
  0.6666666666666669  0.3333333333333333  0.2142857142857142
  0.5833333333333335  0.4166666666666664  0.3571428571428571
  0.6666666666666669  0.3333333333333333  0.3571428571428570
  0.5833333333333335  0.4166666666666664  0.4999999999999999
  0.6666666666666669  0.3333333333333333  0.4999999999999999
  0.5833333333333335  0.4166666666666664  0.6428571428571427
  0.6666666666666669  0.3333333333333333  0.6428571428571427
  0.5833333333333335  0.4166666666666664  0.7857142857142856
  0.6666666666666669  0.3333333333333333  0.7857142857142856
  0.5833333333333335  0.4166666666666664  0.0714285714285714
  0.6666666666666669  0.0833333333333333  0.0714285714285714
  0.6666666666666669  0.8333333333333331  0.9285714285714284
  0.9166666666666667  0.0833333333333333  0.0714285714285714
  0.8333333333333336  0.6666666666666664  0.2142857142857142
  0.9166666666666667  0.5833333333333333  0.2142857142857142
  0.8333333333333336  0.6666666666666664  0.3571428571428570
  0.9166666666666667  0.5833333333333333  0.3571428571428570
  0.8333333333333336  0.6666666666666664  0.4999999999999999
  0.9166666666666667  0.5833333333333333  0.4999999999999999
  0.8333333333333336  0.6666666666666664  0.6428571428571427
  0.9166666666666667  0.5833333333333333  0.6428571428571428
  0.8333333333333336  0.6666666666666664  0.7857142857142856
  0.9166666666666667  0.5833333333333333  0.7857142857142856
  0.8333333333333336  0.6666666666666664  0.9285714285714284
  0.9166666666666667  0.5833333333333333  0.0714285714285714
  0.9166666666666667  0.5833333333333333  0.9285714285714284
  0.9166666666666667  0.8333333333333331  0.0714285714285714
  0.8333333333333336  0.9166666666666664  0.2142857142857142
  0.9166666666666667  0.8333333333333331  0.2142857142857142
  0.8333333333333336  0.9166666666666664  0.3571428571428571
  0.9166666666666667  0.8333333333333331  0.3571428571428570
  0.8333333333333336  0.9166666666666664  0.4999999999999999
  0.9166666666666667  0.8333333333333331  0.4999999999999999
  0.8333333333333336  0.9166666666666664  0.6428571428571427
  0.9166666666666667  0.8333333333333331  0.6428571428571427
  0.8333333333333336  0.9166666666666664  0.7857142857142856
  0.9166666666666667  0.8333333333333331  0.7857142857142856
  0.8333333333333336  0.9166666666666664  0.0714285714285714
  0.8333333333333336  0.1666666666666665  0.0714285714285714
  0.8333333333333336  0.6666666666666664  0.0714285714285714
  0.8333333333333336  0.4166666666666664  0.9285714285714284
  0.8333333333333336  0.1666666666666665  0.2142857142857142
  0.9166666666666667  0.0833333333333333  0.2142857142857142
  0.8333333333333336  0.1666666666666665  0.3571428571428570
  0.9166666666666667  0.0833333333333333  0.3571428571428570
  0.8333333333333336  0.1666666666666665  0.4999999999999999
  0.9166666666666667  0.0833333333333333  0.4999999999999999
  0.8333333333333336  0.1666666666666665  0.6428571428571428
  0.9166666666666667  0.0833333333333333  0.6428571428571427
  0.8333333333333336  0.1666666666666665  0.7857142857142856
  0.9166666666666667  0.0833333333333333  0.7857142857142855
  0.8333333333333336  0.1666666666666665  0.9285714285714285
  0.9166666666666667  0.3333333333333332  0.9285714285714284
  0.9166666666666667  0.0833333333333333  0.9285714285714284
  0.9166666666666667  0.3333333333333332  0.0714285714285714
  0.8333333333333336  0.4166666666666664  0.2142857142857142
  0.9166666666666667  0.3333333333333332  0.2142857142857142
  0.8333333333333336  0.4166666666666664  0.3571428571428570
  0.9166666666666667  0.3333333333333332  0.3571428571428570
  0.8333333333333336  0.4166666666666664  0.4999999999999999
  0.9166666666666667  0.3333333333333332  0.4999999999999998
  0.8333333333333336  0.4166666666666664  0.6428571428571427
  0.9166666666666667  0.3333333333333332  0.6428571428571428
  0.8333333333333336  0.4166666666666664  0.7857142857142856
  0.9166666666666667  0.3333333333333332  0.7857142857142856
  0.8333333333333336  0.4166666666666664  0.0714285714285714
  0.5833333333333335  0.1666666666666664  0.0714285714285714
  0.4166666666666667  0.8333333333333331  0.9285714285714284
  0.3333333333333335  0.9166666666666664  0.9285714285714284
  0.1666666666666667  0.5833333333333331  0.0714285714285714
  0.0833333333333335  0.6666666666666664  0.2142857142857142
  0.1666666666666667  0.5833333333333331  0.2142857142857142
  0.0833333333333335  0.6666666666666664  0.3571428571428570
  0.1666666666666667  0.5833333333333331  0.3571428571428570
  0.0833333333333335  0.6666666666666664  0.4999999999999999
  0.1666666666666667  0.5833333333333331  0.4999999999999998
  0.0833333333333335  0.6666666666666664  0.6428571428571427
  0.1666666666666667  0.5833333333333331  0.6428571428571427
  0.0833333333333335  0.6666666666666664  0.7857142857142855
  0.1666666666666667  0.5833333333333331  0.7857142857142855
  0.0833333333333335  0.6666666666666664  0.0714285714285714
  0.0833333333333335  0.6666666666666664  0.9285714285714284
  0.0833333333333335  0.9166666666666664  0.0714285714285714
  0.1666666666666667  0.8333333333333330  0.0714285714285714
  0.0833333333333335  0.9166666666666664  0.2142857142857142
  0.1666666666666667  0.8333333333333330  0.2142857142857142
  0.0833333333333335  0.9166666666666664  0.3571428571428570
  0.1666666666666667  0.8333333333333330  0.3571428571428571
  0.0833333333333335  0.9166666666666664  0.4999999999999999
  0.1666666666666667  0.8333333333333330  0.4999999999999999
  0.0833333333333335  0.9166666666666664  0.6428571428571428
  0.1666666666666667  0.8333333333333330  0.6428571428571427
  0.0833333333333335  0.9166666666666664  0.7857142857142856
  0.1666666666666667  0.5833333333333331  0.9285714285714284
  0.1666666666666667  0.8333333333333330  0.7857142857142855
  0.1666666666666667  0.3333333333333332  0.9285714285714284
  0.1666666666666667  0.3333333333333332  0.7857142857142856
  0.1666666666666667  0.0833333333333332  0.0714285714285714
  0.0833333333333335  0.1666666666666664  0.2142857142857142
  0.1666666666666667  0.0833333333333332  0.2142857142857142
  0.0833333333333335  0.1666666666666664  0.3571428571428570
  0.1666666666666667  0.0833333333333332  0.3571428571428571
  0.0833333333333335  0.1666666666666664  0.4999999999999999
  0.1666666666666667  0.0833333333333332  0.4999999999999999
  0.0833333333333335  0.1666666666666664  0.6428571428571427
  0.1666666666666667  0.0833333333333332  0.6428571428571428
  0.0833333333333335  0.1666666666666664  0.7857142857142856
  0.1666666666666667  0.0833333333333332  0.7857142857142856
  0.0833333333333335  0.4166666666666664  0.9285714285714284
  0.0833333333333335  0.1666666666666664  0.9285714285714284
  0.0833333333333335  0.4166666666666664  0.0714285714285714
  0.1666666666666667  0.3333333333333332  0.0714285714285714
  0.0833333333333335  0.4166666666666664  0.2142857142857142
  0.1666666666666667  0.3333333333333332  0.2142857142857142
  0.0833333333333335  0.4166666666666664  0.3571428571428570
  0.1666666666666667  0.3333333333333332  0.3571428571428570
  0.0833333333333335  0.4166666666666664  0.4999999999999999
  0.1666666666666667  0.3333333333333332  0.4999999999999999
  0.0833333333333335  0.4166666666666664  0.6428571428571427
  0.1666666666666667  0.3333333333333332  0.6428571428571428
  0.0833333333333335  0.4166666666666664  0.7857142857142856
  0.1666666666666667  0.0833333333333332  0.9285714285714284
  0.0833333333333335  0.9166666666666664  0.9285714285714285
  0.1666666666666667  0.8333333333333330  0.9285714285714284
  0.3333333333333335  0.1666666666666664  0.0714285714285714
  0.3333333333333335  0.6666666666666663  0.2142857142857142
  0.4166666666666667  0.5833333333333333  0.2142857142857142
  0.3333333333333335  0.6666666666666663  0.3571428571428570
  0.4166666666666667  0.5833333333333333  0.3571428571428571
  0.3333333333333335  0.6666666666666663  0.4999999999999999
  0.4166666666666667  0.5833333333333333  0.4999999999999999
  0.3333333333333335  0.6666666666666663  0.6428571428571427
  0.4166666666666667  0.5833333333333333  0.6428571428571428
  0.3333333333333335  0.6666666666666663  0.7857142857142856
  0.4166666666666667  0.5833333333333333  0.7857142857142856
  0.3333333333333335  0.6666666666666663  0.9285714285714284
  0.4166666666666667  0.5833333333333333  0.0714285714285714
  0.4166666666666667  0.5833333333333333  0.9285714285714284
  0.4166666666666667  0.8333333333333331  0.0714285714285714
  0.3333333333333335  0.9166666666666664  0.2142857142857142
  0.4166666666666667  0.8333333333333331  0.2142857142857142
  0.3333333333333335  0.9166666666666664  0.3571428571428570
  0.4166666666666667  0.8333333333333331  0.3571428571428570
  0.3333333333333335  0.9166666666666664  0.4999999999999999
  0.4166666666666667  0.8333333333333331  0.4999999999999999
  0.3333333333333335  0.9166666666666664  0.6428571428571427
  0.4166666666666667  0.8333333333333331  0.6428571428571428
  0.3333333333333335  0.9166666666666664  0.7857142857142856
  0.4166666666666667  0.8333333333333331  0.7857142857142856
  0.3333333333333335  0.9166666666666664  0.0714285714285714
  0.3333333333333335  0.6666666666666663  0.0714285714285714
  0.4166666666666667  0.3333333333333332  0.9285714285714284
  0.3333333333333335  0.4166666666666664  0.9285714285714284
  0.4166666666666667  0.0833333333333332  0.0714285714285714
  0.3333333333333335  0.1666666666666664  0.2142857142857142
  0.4166666666666667  0.0833333333333332  0.2142857142857142
  0.3333333333333335  0.1666666666666664  0.3571428571428570
  0.4166666666666667  0.0833333333333332  0.3571428571428571
  0.3333333333333335  0.1666666666666664  0.4999999999999999
  0.4166666666666667  0.0833333333333332  0.4999999999999999
  0.3333333333333335  0.1666666666666664  0.6428571428571428
  0.4166666666666667  0.0833333333333332  0.6428571428571427
  0.3333333333333335  0.1666666666666664  0.7857142857142856
  0.4166666666666667  0.0833333333333332  0.7857142857142855
  0.3333333333333335  0.1666666666666664  0.9285714285714285
  0.4166666666666667  0.0833333333333332  0.9285714285714284
  0.3333333333333335  0.4166666666666664  0.0714285714285714
  0.4166666666666667  0.3333333333333332  0.0714285714285714
  0.3333333333333335  0.4166666666666664  0.2142857142857142
  0.4166666666666667  0.3333333333333332  0.2142857142857142
  0.3333333333333335  0.4166666666666664  0.3571428571428571
  0.4166666666666667  0.3333333333333332  0.3571428571428570
  0.3333333333333335  0.4166666666666664  0.4999999999999999
  0.4166666666666667  0.3333333333333332  0.4999999999999999
  0.3333333333333335  0.4166666666666664  0.6428571428571427
  0.4166666666666667  0.3333333333333332  0.6428571428571428
  0.3333333333333335  0.4166666666666664  0.7857142857142856
  0.4166666666666667  0.3333333333333332  0.7857142857142856
  0.8333333333333336  0.9166666666666664  0.9285714285714284
  0.9166666666666667  0.8333333333333331  0.9285714285714284
