Ba4
1.0
   4.6261501500000000    0.0000000000000000    0.0000000000000003
  -0.0000000000000005    8.0223258100000816    0.0000000000000005
   0.0000000000000000    0.0000000000000000    7.2946784899999999
Ba
4
direct
   0.0000000000000000    0.3329066400000000    0.7500000000000000 Ba0+
   0.0000000000000000    0.6670933600000000    0.2500000000000000 Ba0+
   0.5000000000000000    0.8329066400000000    0.7500000000000000 Ba0+
   0.5000000000000000    0.1670933599999990    0.2500000000000000 Ba0+
