S 
 1.0000000000000000
     2.5333064382903974    0.3918308591785910   -0.3433377042650262
    -0.4397157967423699    2.5254359489610287   -0.3433377336920046
     0.2811993088872624    0.3918308531736530    2.5409550849448097
 S  
   1
Direct
  0.0000000000000000  0.0000000000000000  0.0000000000000000
