P 
 1.0000000000000000
     3.1507528849097084    0.1081952530342893    2.2122548961015629
     1.2074127376369463    2.9122337672969114    2.2122547661726628
     0.1561144478463593    0.1081954670792751    3.8466794841621530
 P  
   2
Direct
  0.2254404892028439  0.2254404921746057  0.2254404864480213
  0.7745595107971583  0.7745595078253958  0.7745595135519807
