P (mp-130)
1.0
   3.0881735400000001    0.0405988700000000    2.0560325800000001
   1.1221494599999999    2.8773677400000000    2.0560325900000000
   0.0585793000000000    0.0405988700000000    3.7095354500000002
P
2
direct
   0.2270802500000000    0.2270802500000000    0.2270802500000000 P
   0.7729197500000000    0.7729197500000000    0.7729197500000000 P
