P 
 1.0000000000000000
    -0.1320440693938175    0.3366491927075108    7.6517627663485150
    -3.7444422573917957   11.4382201370274519    1.8568089053883978
   -12.3451833692466888    0.1261722017950101    3.9183219689434012
 P  
  42
Direct
  0.5806872566412645  0.6676975347324970  0.1487265849923159
  0.2922809095588209  0.8266331122387386  0.5957535620591226
  0.7410540136861600  0.0071648054324395  0.3644295128062254
  0.2589459687876894 -0.0071648165884620  0.6355705112072950
  0.9837515971074668  0.9171727529742235  0.4296793884320560
  0.0162484402693191  0.0828272494740832  0.5703206426254481
  0.9693429959717450  0.7785064058490045  0.3596600116832259
  0.0306569933972245  0.2214935954884449  0.6403399973499382
  0.2139574372508411  0.6642650401246600  0.4017590110645591
  0.7860425901143799  0.3357350013923321  0.5982410387982936
  0.3236522548738441  0.6103436969810108  0.1486224770575622
  0.6763477063051554  0.3896563025037904  0.8513775939497601
  0.6131051215040247  0.3207581843921456  0.1507554108960418
  0.3868948711634028  0.6792417798327196  0.8492446496932367
  0.8766608571934321  0.0513745886175376  0.1756206519279420
  0.1233391132259046  0.9486254170785412  0.8243793823423324
  0.0548055263910842  0.8745194133326044  0.1717556355792306
  0.9451944541286086  0.1254805909876370  0.8282443878875938
  0.7077191796242240  0.1733668739374077  0.4042464885636087
  0.5305522452839565  0.7342617474059598  0.6644392630733700
  0.4694477928977072  0.2657383178557091  0.3355607969261766
  0.5430728673581684  0.5805794032152053  0.6068748445750718
  0.4193127404903287  0.3323024731358094  0.8512734436410971
  0.6999651998791866  0.5172226315579985  0.2692613060643278
  0.3000346372896764  0.4827773159953985  0.7307387253244122
  0.8354728946422133  0.4135046095001520  0.1498297295312121
  0.1645271202624577  0.5864953849883611  0.8501702904399978
  0.9532277489472377  0.2691912633594993  0.2769098139733203
  0.0467722870293996  0.7308087282443440  0.7230902386964835
  0.0943964877884792  0.1529043811185697  0.1708652566672447
  0.4013636104151991  0.4562104055227680  0.0814386762928056
  0.9056034977214585  0.8470956317012215  0.8291347682040803
  0.7754292897891920  0.9822535749968381  0.7027396776747756
  0.3249005106643027  0.9224629614624577  0.1689082286306601
  0.6750994836929312  0.0775370428140576  0.8310917848300815
  0.4556830891028373  0.7652155802805835  0.2752425113172480
  0.5443169166598424  0.2347844459681561  0.7247575326955779
  0.2139606978788705  0.5210199389568887  0.3332756993486780
  0.7860393900769875  0.4789800452274945  0.6667243694184972
  0.4569271894516508  0.4194206020890117  0.3931253082372322
  0.2245707010905806  0.0177464321412270  0.2972603327235136
  0.5986363143922968  0.5437895536811014  0.9185614627984422
