P (mp-1198724)
1.0
  -0.0954261300000000    0.1807497200000000    7.4050805500000001
  -3.6805218200000001   11.2137850300000004    1.5569601200000001
 -12.1799265900000009    0.0354924999999990    3.7371928199999989
P
42
direct
   0.5830508300000000    0.6695391700000000    0.1503125400000000 P
   0.4169491700000000    0.3304608300000000    0.8496874600000001 P
   0.7077777900000000    0.5217791800000000    0.2715735200000000 P
   0.2922222100000000    0.4782208200000000    0.7284264800000000 P
   0.8358701500000000    0.4149233300000000    0.1522119500000000 P
   0.1641298500000000    0.5850766700000000    0.8477880500000000 P
   0.9578815300000000    0.2729073500000000    0.2766018600000000 P
   0.0421184700000000    0.7270926500000000    0.7233981400000000 P
   0.0996214000000000    0.1547192800000000    0.1728328100000000 P
   0.9003785999999990    0.8452807200000000    0.8271671900000001 P
   0.2332212600000000    0.0223268200000000    0.2985336000000000 P
   0.7667787400000000    0.9776731800000000    0.7014663999999990 P
   0.3285989200000000    0.9269208600000001    0.1694355700000000 P
   0.6714010800000000    0.0730791400000000    0.8305644300000000 P
   0.4623778200000000    0.7704132300000001    0.2733960700000000 P
   0.5376221800000001    0.2295867700000000    0.7266039300000000 P
   0.2090142300000000    0.5164306000000000    0.3396203500000000 P
   0.7909857700000000    0.4835694000000000    0.6603796500000000 P
   0.4566713100000000    0.4194183700000000    0.3988686900000000 P
   0.5433286900000001    0.5805816300000000    0.6011323100000000 P
   0.4603555000000000    0.2634509900000000    0.3414441500000000 P
   0.5396445000000000    0.7365490100000001    0.6585558500000001 P
   0.7043639800000000    0.1725817400000000    0.4060981500000000 P
   0.2956360200000000    0.8274182600000001    0.5939018500000001 P
   0.7349451400000000    0.0028068400000000    0.3691930200000000 P
   0.2650548600000000   -0.0028068400000000    0.6308069800000000 P
   0.9830696900000000    0.9171050500000000    0.4327261300000000 P
   0.0169303100000000    0.0828949500000000    0.5672738700000000 P
   0.9627620800000001    0.7746952600000000    0.3639651000000000 P
   0.0372379200000000    0.2253047400000000    0.6360349000000000 P
   0.2128016500000000    0.6649899400000000    0.4031965700000000 P
   0.7871983500000000    0.3350100600000000    0.5968034300000000 P
   0.3189108900000000    0.6058961100000000    0.1530171700000000 P
   0.6810891100000001    0.3941038900000000    0.8469828300000000 P
   0.6042907800000000    0.3186944700000000    0.1550917000000000 P
   0.3957092200000000    0.6813055300000000    0.8449082999999999 P
   0.8727975000000000    0.0473685500000000    0.1793139300000000 P
   0.1272025000000000    0.9526314500000000    0.8206860700000000 P
   0.0489822300000000    0.8725598200000000    0.1752378000000000 P
   0.9510177700000000    0.1274401800000000    0.8247622000000000 P
   0.3953597200000000    0.4530919500000000    0.0820011300000000 P
   0.6046402800000000    0.5469080500000000    0.9179988700000000 P
