Ba2 Ti2 O6
1.0
   5.7251902167750357    0.0000000000000000    0.0000000000000004
  -0.0000000000000004    5.7506790620211525    0.0000000000000004
   0.0000000000000000    0.0000000000000000    3.9833338700000001
Ba Ti O
2 2 6
direct
   0.5000000000000000    0.5034138500000001    0.0000000000000000 Ba2+
   0.0000000000000000    0.0034138500000000    0.0000000000000000 Ba2+
   0.5000000000000000    0.0185038200000000    0.5000000000000000 Ti4+
   0.0000000000000000    0.5185038200000001    0.5000000000000000 Ti4+
   0.7435368850000000    0.2348887849999990    0.5000000000000000 O2-
   0.2564631149999990    0.2348887849999990    0.5000000000000000 O2-
   0.5000000000000000    0.9882047600000001    0.0000000000000000 O2-
   0.2435368850000000    0.7348887849999991    0.5000000000000000 O2-
   0.7564631149999991    0.7348887849999991    0.5000000000000000 O2-
   0.0000000000000000    0.4882047600000000    0.0000000000000000 O2-
