O8
1.0
   4.0441824887829396    0.0000000000000000    0.0000000000000002
  -0.0000000000000002    4.0441824887829396    0.0000000000000002
   0.0000000000000000    0.0000000000000000    8.7832658222353412
O
8
direct
   0.5559171899999991    0.3640278999999990    0.5306713599999990 O0+
   0.4440828100000001    0.6359720999999999    0.0306713599999990 O0+
   0.8640278999999991    0.9440828100000001    0.2806713599999990 O0+
   0.1359721000000000    0.0559171899999990    0.7806713599999990 O0+
   0.6359720999999999    0.4440828100000001    0.9693286400000001 O0+
   0.3640278999999990    0.5559171899999991    0.4693286400000000 O0+
   0.9440828100000001    0.8640278999999991    0.7193286400000001 O0+
   0.0559171899999990    0.1359721000000000    0.2193286400000000 O0+
