Ba2 Ti2 O6
1.0
   5.3136939999999999    0.0000000000000000    0.0000000000000003
  -0.0000000000000003    5.3336240000000004    0.0000000000000003
   0.0000000000000000    0.0000000000000000    8.8814930000000007
Ba Ti O
2 2 6
direct
   0.5000000000000000    0.4873429999999990    0.0000000000000000 Ba2+
   0.0000000000000000    0.9873430000000000    0.0000000000000000 Ba2+
   0.5000000000000000    0.5283190000000001    0.5000000000000000 Ti4+
   0.0000000000000000    0.0283190000000000    0.5000000000000000 Ti4+
   0.5000000000000000    0.9885529999999991    0.0000000000000000 O2-
   0.2562444999999990    0.2374925000000000    0.5000000000000000 O2-
   0.7437555000000000    0.2374925000000000    0.5000000000000000 O2-
   0.0000000000000000    0.4885529999999990    0.0000000000000000 O2-
   0.7562444999999991    0.7374925000000001    0.5000000000000000 O2-
   0.2437554999999990    0.7374925000000001    0.5000000000000000 O2-
