GeS2 (mp-542613)
1.0
   6.8688031199999999    0.1889725300000000    0.0000000000000000
  -3.2026562900000002    6.0800662599999997    0.0000000000000000
   0.0000000000000000    0.0000000000000000   22.6739236800000015
Ge S
12 24
direct
   0.7475936200000001    0.2519837000000000    0.7379712600000000 Ge
   0.3717160000000000    0.6187881500000000    0.3750620700000000 Ge
   0.8673498100000000    0.6134391700000000    0.1251031100000000 Ge
   0.0017124400000000    0.9901333200000000    0.0120167600000000 Ge
   0.8673498100000000    0.1134391700000000    0.8748968900000000 Ge
   0.3717160000000000    0.1187881500000000    0.6249379300000000 Ge
   0.0017124400000000    0.4901333200000000    0.9879832400000000 Ge
   0.5078683300000000    0.9969509600000001    0.4877362600000000 Ge
   0.2473000200000000    0.2513995300000000    0.7623665700000000 Ge
   0.5078683300000000    0.4969509600000000    0.5122637400000000 Ge
   0.7475936200000001    0.7519836999999990    0.2620287400000000 Ge
   0.2473000200000000    0.7513995300000000    0.2376334300000000 Ge
   0.1824974900000000    0.1110357200000000    0.8525529100000000 S
   0.0993811300000000    0.4767961500000000    0.7468677400000000 S
   0.6867179300000000    0.1164074700000000    0.6472980100000000 S
   0.6867179300000000    0.6164074700000001    0.3527019900000000 S
   0.5992601600000000    0.9766389400000001    0.2458188999999990 S
   0.2316162900000000    0.8822755500000000    0.5512555800000000 S
   0.7329264800000000    0.8488308500000000    0.5036304800000000 S
   0.7263285100000000    0.3752658400000000    0.0518302100000000 S
   0.7263285100000000    0.8752658400000001    0.9481697900000000 S
   0.3702439999999990    0.4344202700000000    0.6027589999999990 S
   0.1824974900000000    0.6110357200000001    0.1474470900000000 S
   0.2316162900000000    0.3822755500000000    0.4487444200000000 S
   0.3702439999999990    0.9344202700000001    0.3972409999999990 S
   0.8626784200000001    0.9271102400000000    0.1023109100000000 S
   0.1340012400000000    0.9769408400000000    0.6982653999999990 S
   0.8626784200000001    0.4271102400000000    0.8976890900000000 S
   0.7329264800000000    0.3488308500000000    0.4963695200000000 S
   0.6312043600000000    0.4745474900000000    0.1989040400000000 S
   0.2269017600000000    0.8420327999999990    0.9964848400000000 S
   0.5992601600000000    0.4766389400000000    0.7541810999999990 S
   0.1340012400000000    0.4769408400000000    0.3017345999999990 S
   0.2269017600000000    0.3420327999999990    0.0035151600000000 S
   0.0993811300000000    0.9767961500000000    0.2531322600000000 S
   0.6312043600000000    0.9745474900000001    0.8010959600000001 S
