Ti4
1.0
   4.1091490770411463    0.0000000000000000    0.0000000000000003
   0.0000000000000007    4.1091490770411463    0.0000000000000003
   0.0000000000000000    0.0000000000000000    4.1091490770411463
Ti
4
direct
   0.0000000000000000    0.0000000000000000    0.0000000000000000 Ti0+
   0.0000000000000000    0.5000000000000000    0.5000000000000000 Ti0+
   0.5000000000000000    0.0000000000000000    0.5000000000000000 Ti0+
   0.5000000000000000    0.5000000000000000    0.0000000000000000 Ti0+
