Li2S (mp-723352)
1.0
  36.7692040000000020   -1.9981259999999992    0.0000000000000000
  36.7692040000000020    1.9981259999999992    0.0000000000000000
  36.6606209999999990    0.0000000000000000    3.4591520000000000
Li S
22 11
direct
   0.6748390000000000    0.6759020000000000    0.6859210000000000 Li
   0.0328349999999990    0.0411550000000000    0.0562730000000000 Li
   0.0118870000000000    0.0362120000000000    0.0190080000000000 Li
   0.3795530000000000    0.3998500000000000    0.3780910000000000 Li
   0.4113920000000000    0.4132210000000000    0.3938060000000000 Li
   0.4192559999999990    0.4374389999999990    0.4419760000000000 Li
   0.7518680000000000    0.7403600000000000    0.7602169999999990 Li
   0.7847800000000000    0.7964990000000000    0.8063159999999990 Li
   0.1689820000000000    0.1469810000000000    0.1607000000000000 Li
   0.1175509999999990    0.1238160000000000    0.0998319999999990 Li
   0.4739600000000000    0.4678239999999990    0.4905049999999990 Li
   0.5232410000000000    0.5338900000000001    0.5115750000000000 Li
   0.8504760000000000    0.8433440000000000    0.8291620000000000 Li
   0.8952350000000000    0.8728710000000000    0.8912890000000000 Li
   0.1920260000000000    0.2067109999999990    0.2149220000000000 Li
   0.2442290000000000    0.2619800000000000    0.2445079999999990 Li
   0.5580330000000000    0.5714620000000000    0.5735530000000000 Li
   0.6197319999999999    0.6040989999999991    0.6182070000000000 Li
   0.9205359999999990    0.9295359999999990    0.9446220000000000 Li
   0.9809650000000000    0.9887790000000000    0.9643590000000000 Li
   0.2820830000000000    0.3013949999999990    0.3034620000000000 Li
   0.6674829999999990    0.6575740000000000    0.6514980000000000 Li
   0.0139100000000000    0.9917959999999991    0.9978849999999990 S
   0.3725219999999990    0.3622240000000000    0.3604190000000000 S
   0.7285429999999991    0.7329129999999990    0.7224130000000000 S
   0.4653870000000000    0.4571770000000000    0.4417080000000000 S
   0.1037869999999990    0.0891820000000000    0.0800189999999990 S
   0.8076409999999991    0.8192750000000000    0.8277749999999990 S
   0.5347490000000000    0.5587970000000000    0.5416710000000000 S
   0.9156550000000000    0.9162530000000000    0.8943300000000001 S
   0.1677710000000000    0.1892660000000000    0.1878729999999990 S
   0.2785490000000000    0.2673709999999990    0.2702420000000000 S
   0.6225220000000000    0.6463920000000000    0.6400509999999990 S
