S 
 1.0000000000000000
    10.5531533613463253   -0.0000616630812803   -0.0001353469589033
    -0.0000901002588712   13.5624791358921186   -2.5280303227010243
    -0.0002803444317218    3.7154266909950517   19.7775877313690103
 S  
  80
Direct
 -0.0108769127544372  0.0000069200668015 -0.0000005560033944
  0.3413513215841312  0.4219221857000087  0.2962054715636087
  0.3413586898255521  0.5780799884080965  0.7038015893600964
  0.4157667203946773  0.5211152157058325  0.2300013381679668
  0.4157602807864791  0.4788784754540910  0.7700083987487591
  0.2746557972421196  0.6217839506561380  0.2133972074988389
  0.2746372373603169  0.3782175965577638  0.7865989526833519
  0.2887917669258068  0.7214263887618019  0.2896148252144375
  0.2438057916215421  0.6779602714887061  0.7603071184433919
  0.2888232109726919  0.2785739775620903  0.7103863951738422
  0.4218753136689684  0.1784147592265762  0.7406740793603245
  0.3253268907676538  0.9216001795497959  0.2022136572889770
  0.3253201092829239  0.0784016927406525  0.7977974666692105
  0.2492974596332904  0.9795332968923761  0.7321404115859987
  0.2492785723846245  0.0204686436305530  0.2678512239319792
  0.3897679091931949  0.8786232332137459  0.7148051943772977
  0.3897590549220341  0.1213758429963174  0.2852022627591581
  0.4218652283113595  0.8215744508198999  0.2593411556351293
  0.9209014777981789  0.8228228874306940  0.7627594151338905
  0.2438060066179852  0.3220411428268523  0.2396850051385717
  0.3761640117670907  0.2215518866183432  0.2091356977067347
  0.0052087515949049  0.2999242010942970  0.0291870048973756
  0.0051821526928649  0.7000797910755686  0.9708170555701777
  0.1065135367334823  0.8992253374741517  0.0442050935131469
  0.1064978535340433  0.1007703419928480  0.9557749968600566
  0.1507830688559415  0.2000717818771482  0.0288517246119224
  0.1507730731101383  0.7999260786684658  0.9711336777648488
  0.6337996401893908  0.5497284217932101  0.0383542083010911
  0.3761675088751881  0.7784481281782584  0.7908714126749574
  0.6338365562608095  0.4502693767953864  0.9616545330177151
  0.4956916986288198  0.3499645593520623  0.9849110599353366
  0.5268893609222042  0.9501955194973445  0.0383949299652804
  0.5268952409153703  0.0497997001253889  0.9616065977519895
  0.6657252301455601  0.8504511490794765  0.0154594690343258
  0.6657251864818710  0.1495493103332922  0.9845648001873042
  0.5812940275385251  0.2497072029119898  0.0464390331082615
  0.5813323773462031  0.7502973741563214  0.9535571985456762
  0.4956881765848217  0.6500497769613125  0.0150718335223680
  0.9209119217468134  0.1771641392083527  0.2372513851452687
  0.7839576166627155  0.2772095081183373  0.2119866680022022
  0.7839241776530110  0.7227868314235961  0.7880083937262730
  0.0806480468890571  0.2501072044487735  0.5471540966494505
  0.1666579989381237  0.8497361525849317  0.5143956149723320
  0.1666620420942175  0.1502590142864015  0.4856302220840027
  0.0286411340061673  0.9497672506134607  0.5381329770371222
  0.0286549204626703  0.0502239309024292  0.4618626295727000
  0.5483356214523823  0.6007996296769937  0.5436680704439770
  0.5483448142943230  0.3992061182624957  0.4563265119020438
  0.0806929320126328  0.7498914863935696  0.4528414848721052
  0.5056512061044143  0.7003639887092370  0.4702726688651685
  0.6516655735997089  0.7998177978555117  0.4708487687028122
  0.6516603486440645  0.2001813496573357  0.5291507505955807
  0.6077547144302471  0.8990526747255712  0.5440397716102148
  0.6077728016000858  0.1009508589890356  0.4559480790265955
  0.6661955214952243  0.5000046166603586  0.5000054326669964
  0.1666714051057305  0.5000039107825273 -0.0000036620005882
  0.4904162119956683  0.0000091927629304  0.4999934108301617
  0.5056632597250473  0.2996431191080811  0.5297214720305248
 -0.0045547963180892  0.3500003481349850  0.4852243113358335
 -0.0045634813074982  0.6500083427172778  0.5147546760556698
  0.1337402079270415  0.5499343805345295  0.5382175020593376
  0.7806369623369110  0.3774622716719430  0.2881750694167686
  0.7806547690055488  0.6225382455111176  0.7118188965420484
  0.9182875964916564  0.4785123113314353  0.2655812475303823
  0.9182926889803864  0.5214786557608779  0.7344245610712778
  0.8337341773431066  0.5773367663245359  0.2025966534994716
  0.8337232879006059  0.4226634927036382  0.7974065319511602
  0.7444366559133760  0.6770373223643482  0.2629487206172873
  0.7444382654793554  0.3229635953047544  0.7370422542200564
  0.8809546051314416  0.7771328076927462  0.2886151575614483
  0.8809538096224367  0.2228650763453299  0.7113882157162885
  0.8842154468889742  0.8778624602683942  0.2125541910867716
  0.8842109183602532  0.1221360486394938  0.7874483246966445
  0.7468279921607135  0.9787427623579569  0.2357094490530506
  0.7468134933570048  0.0212574097648714  0.7642787360588169
  0.8325891814492733  0.9225903869025784  0.7018839051345415
  0.8325827149122925  0.0774073152864750  0.2981244616800954
  0.1337854936287058  0.4500598164559364  0.4617948743659274
  0.0488468119367049  0.3995200879373839  0.9559869851709930
  0.0488735511807211  0.6004802831308521  0.0440095887722041
