O24
1.0
   6.6525978200000004    0.0000000000000000    0.0000000000000004
  -0.0000000000000004    6.7681020899999993    0.0000000000000004
   0.0000000000000000    0.0000000000000000    7.4504369099999987
O
24
direct
   0.7656855400000000    0.3653576900000000    0.0144982000000000 O0+
   0.4562193400000000    0.9510571800000001    0.6868257700000000 O0+
   0.2656855400000000    0.1346423100000000    0.9855018000000000 O0+
   0.7343144600000000    0.6346423100000000    0.5144982000000000 O0+
   0.2656855400000000    0.3653576900000000    0.4855018000000000 O0+
   0.1539917100000000    0.1847418900000000    0.1178193400000000 O0+
   0.6539917100000000    0.1847418900000000    0.3821806599999990 O0+
   0.0437806599999990    0.0489428199999990    0.1868257700000000 O0+
   0.9562193400000001    0.5489428199999991    0.3131742299999990 O0+
   0.0437806599999990    0.4510571800000001    0.6868257700000000 O0+
   0.5437806599999990    0.0489428199999990    0.3131742299999990 O0+
   0.7656855400000000    0.1346423100000000    0.5144982000000000 O0+
   0.2343144600000000    0.6346423100000000    0.9855018000000000 O0+
   0.9562193400000001    0.9510571800000001    0.8131742299999991 O0+
   0.4562193400000000    0.5489428199999991    0.1868257700000000 O0+
   0.6539917100000000    0.3152581100000000    0.8821806600000001 O0+
   0.3460082900000000    0.8152581100000000    0.6178193400000001 O0+
   0.7343144600000000    0.8653576900000001    0.0144982000000000 O0+
   0.8460082900000000    0.6847418900000000    0.3821806599999990 O0+
   0.1539917100000000    0.3152581100000000    0.6178193400000001 O0+
   0.2343144600000000    0.8653576900000001    0.4855018000000000 O0+
   0.5437806599999990    0.4510571800000001    0.8131742299999991 O0+
   0.8460082900000000    0.8152581100000000    0.8821806600000001 O0+
   0.3460082900000000    0.6847418900000000    0.1178193400000000 O0+
