Li3PS4 (mp-985583)
1.0
   6.1717659300000003   -0.0000000000000000    0.0000000000000000
   0.0000000000000000    8.0185985899999999    0.0000000000000000
   0.0000000000000000    0.0000000000000000   13.0328182399999992
Li P S
12 4 16
direct
   0.3894017600000000    0.0334973400000000    0.3325457500000000 Li
   0.6105982400000000    0.9665026600000001    0.6674542500000000 Li
   0.8894017600000000    0.9665026600000001    0.1674542500000000 Li
   0.1105982400000000    0.0334973400000000    0.8325457500000000 Li
   0.6105982400000000    0.5334973400000000    0.6674542500000000 Li
   0.3894017600000000    0.4665026600000000    0.3325457500000000 Li
   0.1105982400000000    0.4665026600000000    0.8325457500000000 Li
   0.8894017600000000    0.5334973400000000    0.1674542500000000 Li
   0.5000000000000000   -0.0000000000000000   -0.0000000000000000 Li
  -0.0000000000000000   -0.0000000000000000    0.5000000000000000 Li
   0.5000000000000000    0.5000000000000000   -0.0000000000000000 Li
  -0.0000000000000000    0.5000000000000000    0.5000000000000000 Li
   0.1523891400000000    0.2500000000000000    0.0894678200000000 P
   0.8476108600000000    0.7500000000000000    0.9105321800000000 P
   0.6523891400000000    0.7500000000000000    0.4105321800000000 P
   0.3476108600000000    0.2500000000000000    0.5894678200000000 P
   0.8246761600000000    0.2500000000000000    0.1001896800000000 S
   0.1753238400000000    0.7500000000000000    0.8998103200000001 S
   0.3246761600000000    0.7500000000000000    0.3998103200000000 S
   0.6753238400000000    0.2500000000000000    0.6001896800000001 S
   0.2724226600000000    0.2500000000000000    0.9406678900000001 S
   0.7275773400000000    0.7500000000000000    0.0593321100000000 S
   0.7724226600000000    0.7500000000000000    0.5593321100000000 S
   0.2275773400000000    0.2500000000000000    0.4406678900000000 S
   0.2709648300000000    0.0365239000000000    0.1538611600000000 S
   0.7290351700000001    0.9634760999999999    0.8461388400000001 S
   0.7709648300000000    0.9634760999999999    0.3461388400000000 S
   0.2290351700000000    0.0365239000000000    0.6538611600000001 S
   0.7290351700000001    0.5365238999999991    0.8461388400000001 S
   0.2709648300000000    0.4634761000000000    0.1538611600000000 S
   0.2290351700000000    0.4634761000000000    0.6538611600000001 S
   0.7709648300000000    0.5365238999999991    0.3461388400000000 S
