S 
 1.0000000000000000
    10.4741762894592068   -0.0002089779937950    0.0003506241467016
    -0.0003168991104594   14.2949113926191806    0.0003231920202873
     0.0007376834945583    0.0004484028968009   19.1434069095118176
 S  
  80
Direct
  0.2944823186519201  0.9907540609885190  0.5481766765516516
  0.2058200065047880  0.5888429977512472  0.8892611046479427
  0.2533215034142262  0.9708559119036528  0.8028484952824372
  0.1902877476504566  0.2104261324775978  0.4011725937736922
  0.6869830857586658  0.5264646944680856  0.4056351403035901
  0.3728171686634065  0.2732547849570653  0.7606682842143817
  0.3130239211616895  0.9735396788687685  0.9056293201435235
  0.2941756145907142  0.5888698498561497  0.1107378912491328
  0.6869761907373506  0.0264602625382675  0.0943706548887514
  0.2387797653555102  0.1948367551657831  0.0535628511771026
  0.0970613531322702  0.9159788221242929  0.2543130021140002
  0.9518486191844430  0.7887497269647014  0.6736309781649511
  0.9028236769405438  0.9002807892735576  0.9220893306803737
  0.1271677954106654  0.2732642665875283  0.2393252568960953
  0.0971740810586403  0.5997187736528754  0.4221146216731099
  0.2612174171010107  0.1948376956764223  0.9464384891968107
  0.7466938820243620  0.5291447301710109  0.3028534651727012
  0.2945029285260538  0.4907505650776119  0.9518230668539420
  0.7941989489053661  0.9111424588377242  0.3892623485327424
  0.1903048381313350  0.7104275739011083  0.0988364091783125
  0.2533062343612200  0.4708552120917025  0.6971465422341228
  0.1271318495126995  0.7732654649627014  0.2606843694357998
  0.2058009661481203  0.0888576215890045  0.6107376153202457
  0.4028952471129003  0.4159830447208967  0.7542979234672897
  0.4028066217149198  0.5997179930714235  0.5778835514593119
  0.3728519058028200  0.7732583769707669  0.7393158971227912
  0.1869753223301764  0.9735373819212148  0.0943701490132660
  0.0970871744056441  0.4159811522264891  0.2457068355725603
  0.4028071023785771  0.0997235899818330  0.9220893357743312
  0.4518425150963249  0.7112558654201060  0.8263558700629402
  0.0481373688776231  0.7112559284813998  0.1736488560543593
  0.8096950842957471  0.2895723567567635  0.9011635595249062
  0.2466595998057240  0.4708444888547707  0.3028443680016162
  0.4029123607414917  0.9159863402442520  0.7456843962748662
  0.8097123687533675  0.7895740031919637  0.5988273925255082
  0.2466412744940829  0.9708473163031724  0.1971575404354346
  0.7533588342415142  0.0291527214041472  0.8028424540377148
  0.9028260605365566  0.4002812936078359  0.5778854350532370
  0.9518626130349772  0.2887440424273797  0.8263511592179262
  0.3096683913532023  0.7104239170228588  0.9011583722906558
  0.6903317214695414  0.2895759759892468  0.0988416546878375
  0.1869788968766033  0.4735363776818343  0.4056398000952107
  0.3130169463903668  0.4735353498590830  0.5943648353208879
  0.8728323186034155  0.7267358174130638  0.7606746923012240
  0.6903244544220645  0.7895777565836583  0.4011689582685306
  0.7941801132485199  0.4111569263184525  0.1107388321492433
  0.8728683091049370  0.2267344203573917  0.7393156132367857
  0.7387825786417883  0.8051622240138896  0.0535615214028420
  0.8130212185274311  0.5264636702958810  0.5943602323056327
  0.7054971037112483  0.5092493510899305  0.0481769022190306
  0.7944438004073802  0.0092460839056047  0.5481825278387026
  0.2055562481620327  0.9907539777641668  0.4518174959084405
  0.0971764074725851  0.0997191906638195  0.0779107235332036
  0.5481677098549653  0.7887473894350575  0.3263701966911502
  0.2387768140404372  0.6948337436892782  0.4464389236478975
  0.7612232730175311  0.3051663418552732  0.5535610501663081
  0.6271828843458097  0.7267453013924542  0.2393317387589548
  0.5971933731729862  0.4002820609610240  0.4221164170309185
  0.9029388828605704  0.0840210839135546  0.7456870400918409
  0.7058106107645865  0.9111185211851357  0.6107354488149687
  0.7387818590042676  0.3051661012431729  0.4464396676389446
  0.5970874935394390  0.0840135779154326  0.2543155653172101
  0.3096754636807364  0.2104223408748834  0.5988310589191620
  0.2941894919875913  0.0888815604390206  0.3892646226411043
  0.2055482260587761  0.4907520040136689  0.0481888299418827
  0.5481576356625567  0.2887441005858306  0.1736441550283077
  0.7058242827146656  0.4111300753567744  0.8892621364812179
  0.7944518017787775  0.5092479190590663  0.9518111571153870
  0.8130247156465051  0.0264625636369237  0.9056298694968989
  0.7055176912868615  0.0092459935805447  0.4518233436577500
  0.7533403446470899  0.5291554524619838  0.6971556186485430
  0.7612203936260804  0.8051631566809603  0.9464371425492509
  0.0481515815289272  0.2112503437358444  0.3263689969761418
  0.4518322231174344  0.2112526764846105  0.6736297891404923
  0.7466784459551247  0.0291441267598110  0.1971515151441315
  0.5971929483754024  0.9002763781562994  0.0779105854116900
  0.6271481015834010  0.2267415094854785  0.2606841474714193
  0.2612182105842849  0.6948339924172847  0.5535603542136913
  0.5971049023484547  0.5840170194812944  0.2457020710506334
  0.9029127638773798  0.5840189007701427  0.7542931651127255
