O4
1.0
   0.0000000000000000    4.6130133888699900    0.0000000000000000
   4.5696357599999997    0.0000000000000000    0.0000000000000000
   0.0000000000000000   -2.2033680438500598   -3.5125168917066052
O
4
direct
   0.5722044800000000    0.5000000000000000    0.1735155200000000 O0+
   0.4277955200000000    0.5000000000000000    0.8264844800000000 O0+
   0.0722044800000000    0.0000000000000000    0.1735155200000000 O0+
   0.9277955200000001    0.0000000000000000    0.8264844800000000 O0+
