Ba1
1.0
   3.9996499999999999    0.0000000000000000    0.0000000000000002
  -0.0000000000000002    3.9996499999999999    0.0000000000000002
   0.0000000000000000    0.0000000000000000    3.6055389999999998
Ba
1
direct
   0.5000000000000000    0.5000000000000000    0.5000000000000000 Ba0+
