Ti100
1.0
  11.6266785463478168    0.0000000000000000    0.0000000000000000
  -0.4760017413469990   12.2082660557614293    0.0000000000000000
  -0.1459637387580370   -0.7121780599232701   12.2889865115998980
Ti
100
direct
   0.8908038300000000    0.1764459999999990    0.7359006600000001 Ti0+
   0.2699117799999990    0.6857812100000000    0.9725085200000001 Ti0+
   0.3560190399999990    0.2954617600000000    0.2018863400000000 Ti0+
   0.5325556300000001    0.4948896600000000    0.2403083500000000 Ti0+
   0.8259959800000000    0.4541922700000000    0.7145886900000000 Ti0+
   0.3025075500000000    0.5180190100000001    0.1839800600000000 Ti0+
   0.5666346999999999    0.3988171300000000    0.8032294000000001 Ti0+
   0.4710212299999990    0.1724359899999990    0.7889690200000000 Ti0+
   0.2971080800000000    0.9766874600000001    0.8412449000000001 Ti0+
   0.1673567900000000    0.6875887500000000    0.2317947400000000 Ti0+
   0.7642497800000000    0.1685105800000000    0.3159496000000000 Ti0+
   0.2254377299999990    0.8979529900000001    0.6318252999999990 Ti0+
   0.1941774700000000    0.0428234800000000    0.4549329800000000 Ti0+
   0.6548498800000000    0.4349541799999990    0.5687986500000000 Ti0+
   0.2243456499999990    0.3586338299999990    0.5751024500000000 Ti0+
   0.7287222000000000    0.4076287300000000    0.3280507500000000 Ti0+
   0.0021250800000000    0.9084179400000000    0.4056138200000000 Ti0+
   0.7859247699999991    0.3189372000000000    0.8821073600000001 Ti0+
   0.3209828499999990    0.3457345300000000    0.7891077000000001 Ti0+
   0.8015028700000001    0.7651306999999991    0.4621025900000000 Ti0+
   0.8877036700000001    0.7897895500000001    0.1692454100000000 Ti0+
   0.3792913400000000    0.7635290900000000    0.1741500900000000 Ti0+
   0.0568290299999990    0.3665061100000000    0.7794248200000000 Ti0+
   0.1915291800000000    0.1129747000000000    0.2328766700000000 Ti0+
   0.9277191300000001    0.0308627300000000    0.1706851600000000 Ti0+
   0.8361370400000001    0.5498447600000000    0.4789736300000000 Ti0+
   0.9733791200000000    0.6767179000000000    0.3428303600000000 Ti0+
   0.0758858700000000    0.7295102999999991    0.5377455200000000 Ti0+
   0.4885038899999991    0.6108815800000000    0.0669481600000000 Ti0+
   0.4073560000000000    0.0048037499999990    0.5193622999999991 Ti0+
   0.3464598000000000    0.1741289300000000    0.9780861800000000 Ti0+
   0.0541799899999990    0.1142003199999990    0.6254480200000000 Ti0+
   0.4797374599999991    0.7917038000000000    0.9676203300000000 Ti0+
   0.7010375000000011    0.0859889400000000    0.1087535900000000 Ti0+
   0.4222187699999990    0.4005397800000000    0.0029142399999990 Ti0+
   0.5687175999999999    0.2826224100000000    0.4140506300000000 Ti0+
   0.4427198000000000    0.2538062200000000    0.5900582200000000 Ti0+
   0.2456216500000000    0.7934549500000000    0.4208168300000000 Ti0+
   0.4316992299999990    0.4781281500000000    0.6236337000000000 Ti0+
   0.8576571700000000    0.5240963100000000    0.9849596200000000 Ti0+
   0.5937414400000001    0.8714601999999990    0.1623222400000000 Ti0+
   0.1738235400000000    0.3071287000000000    0.3497131700000000 Ti0+
   0.0381371699999990    0.6545287400000001    0.0508869400000000 Ti0+
   0.2687815099999990    0.8990135900000000    0.0414687500000000 Ti0+
   0.6819523100000000    0.5891681100000000    0.8635230500000001 Ti0+
   0.1893823899999990    0.4805258000000000    0.9609464400000001 Ti0+
   0.8405638599999991    0.0427893999999990    0.5328825800000000 Ti0+
   0.1814219799999990    0.2921540999999990    0.0640770200000000 Ti0+
   0.8265817500000000    0.6847692700000000    0.6706477300000000 Ti0+
   0.4045978099999991    0.6508415200000001    0.3559626100000000 Ti0+
   0.3802232700000000    0.7732207999999990    0.7666469200000000 Ti0+
   0.8500770200000001    0.9436105400000000    0.7791849600000000 Ti0+
   0.6767102899999990    0.2492661199999990    0.6829193200000000 Ti0+
   0.0725973399999990    0.9896137800000000    0.8096791600000001 Ti0+
   0.8607438700000001    0.5332999200000000    0.1976807600000000 Ti0+
   0.8747377700000001    0.7460420600000001    0.8860272500000000 Ti0+
   0.5969104100000000    0.6037373900000000    0.4551733400000000 Ti0+
   0.3658681800000000    0.1728821800000000    0.3794584100000000 Ti0+
   0.6510835600000000    0.8170500500000000    0.8183225700000001 Ti0+
   0.0210136399999990    0.5482804600000000    0.6186739400000000 Ti0+
   0.9876919300000000    0.3299885400000000    0.5825239300000000 Ti0+
   0.2142615199999990    0.5395281300000000    0.7436916100000001 Ti0+
   0.4624586400000000    0.7859461600000001    0.5514944200000000 Ti0+
   0.1174688200000000    0.7625813300000001    0.7849410100000001 Ti0+
   0.1408868399999990    0.1921694200000000    0.8489083400000000 Ti0+
   0.7692610700000000    0.9227130400000000    0.9929466800000001 Ti0+
   0.6230355399999991    0.0853388899999990    0.5214088900000000 Ti0+
   0.1267222000000000    0.0746847600000000    0.0281352000000000 Ti0+
   0.0814341099999990    0.4626943200000000    0.1897699400000000 Ti0+
   0.7953661300000000    0.3015977700000000    0.1116596600000000 Ti0+
   0.4303730099999991    0.5752003600000000    0.8450610300000001 Ti0+
   0.9895257300000000    0.3507743800000000    0.9953177000000001 Ti0+
   0.6874352699999990    0.8703793300000000    0.6081574600000000 Ti0+
   0.9610443700000000    0.8746636500000000    0.6235572800000000 Ti0+
   0.5893734100000000    0.2338194700000000    0.9720252400000001 Ti0+
   0.5949571000000000    0.6406455900000000    0.6735738600000000 Ti0+
   0.3882624400000000    0.4301992700000000    0.3998233500000000 Ti0+
   0.5198290000000011    0.0070504699999990    0.9392073100000001 Ti0+
   0.0283841900000000    0.8746498500000001    0.9991892600000001 Ti0+
   0.1672378500000000    0.5353089100000000    0.4219955800000000 Ti0+
   0.2710532799999990    0.1276220999999990    0.6660083400000000 Ti0+
   0.1117695399999990    0.8991570000000000    0.2115535400000000 Ti0+
   0.0024884399999990    0.5729614100000000    0.8364517500000000 Ti0+
   0.9937090500000000    0.1442224900000000    0.3877128700000000 Ti0+
   0.5654597800000000    0.8435249700000000    0.3868522700000001 Ti0+
   0.6946949700000000    0.0717104499999990    0.8264119300000000 Ti0+
   0.6551098499999991    0.4590041900000000    0.0533114700000000 Ti0+
   0.4208436799999991    0.0538839500000000    0.1391263999999990 Ti0+
   0.3481858900000000    0.9372814200000000    0.3094225400000000 Ti0+
   0.7726436900000000    0.9319981900000001    0.3184761700000000 Ti0+
   0.7109063099999990    0.6971145200000000    0.0471314000000000 Ti0+
   0.2960238600000000    0.6511374100000000    0.5779058600000000 Ti0+
   0.6913846600000000    0.6806268300000000    0.2707105900000000 Ti0+
   0.9060139100000000    0.1261017900000000    0.9603643600000000 Ti0+
   0.5792553899999990    0.2539787000000000    0.1915544900000000 Ti0+
   0.5610769400000000    0.0564562100000000    0.3034601100000000 Ti0+
   0.7961498100000001    0.2712709700000000    0.4980068800000000 Ti0+
   0.9630081100000000    0.3973191700000000    0.3782561900000000 Ti0+
   0.9873876600000000    0.2468524200000000    0.2043607400000000 Ti0+
   0.5025947500000000    0.9663717600000000    0.7143498400000000 Ti0+
