S 
 1.0000000000000000
     5.0116495911850274    0.0000625722607247    0.0000672729887338
     0.0001205608482486   10.5621673998395895    0.0002028079158951
     0.0002084842861324    0.0003262068359920   16.5320074290051053
 S  
  24
Direct
  0.0088758108845135  0.2756993613460264  0.8981644290893601
  0.7728728676000559  0.8839838028467707  0.1306684021164399
  0.7153942028544146  0.7368419235115750  0.5000006837165938
  0.7271295862068541  0.3839852751303667  0.6306698319500111
  0.2271271323999370  0.1160161971532586  0.8693315978835144
  0.9911291478469793  0.7242990754989925  0.8981649923939714
  0.5088715105502659  0.2242989115862629  0.6018357905966339
  0.2271287420940143  0.1160171367655120  0.1306702027238428
 -0.0000004336222728  0.0000003093281989  0.7958640800479068
  0.0000004336222662 -0.0000003093281948  0.2041359199520477
  0.2846057971455885  0.2631580764884465  0.4999993162833486
  0.7271272702379760  0.3839862600794340  0.3693320364004687
  0.2728704137931698  0.6160147248696464  0.3693301680499345
  0.4911284894497547  0.7757010884137564  0.3981642094033063
  0.5088768084638969  0.2243006185786806  0.3981634768863286
  0.5000000302395285  0.5000008378466176  0.7041358044754069
  0.2728727297620265  0.6160137399205832  0.6306679635994790
  0.4911231915361076  0.7756993814213333  0.6018365231136223
  0.7728712579060024  0.8839828632344904  0.8693297972761105
  0.9911241891155002  0.7243006386539806  0.1018355709105947
  0.2153922285959139  0.7631612213594559  0.0000006109309919
  0.4999999697604803  0.4999991621533926  0.2958641955245356
  0.0088708521530363  0.2757009245010237  0.1018350076059789
  0.7846077714040778  0.2368387786405591 -0.0000006109310215
