S 
 1.0000000000000000
    11.1645701383708076    0.0000110322360276   -1.3714064078677626
     0.0000422986692429   13.0560610271553532    0.0002968127413303
    -0.1591346469061505    0.0003026079613300   12.5361268834855792
 S  
  48
Direct
  0.7843719191202290  0.6577602226170892  0.7259809592296521
  0.7986676884101523  0.4121409798752929  0.0094708761914613
  0.0467876570880040  0.1560589585151434  0.1860459972710638
  0.3054834411029017  0.4298501847599855  0.0266753390047733
  0.9455588282866857  0.0899526535121643  0.5413836778635708
  0.3308014759430439  0.5065985733431395  0.4231414572318756
  0.4523963550268595  0.6761517280589804  0.6087243756357246
  0.5664700782522579  0.7007025344473232  1.0009795899296932
  0.7622862329048026  0.8148100861874926  0.3139179677994841
  0.4335318696615411  0.2006914285983948 -0.0009708063089875
  0.7284227912333670  0.6728162861749545  0.2444569154613145
  0.7431344103360702  0.5138281255612460  0.6630371070358591
  0.7386369090552849 -0.0033131837029591  0.1223242690445807
  0.1766362120028038  0.7601828540837532  0.6431745722514204
  0.7530287801350518  0.3411842515653007  0.8626262173577481
  0.9372895603192273  0.6347147590166022 -0.0256218654940681
  0.4431786041098621  0.1712051232868310  0.8390947567815276
  0.4670471318539245  0.3535935510041211  0.0307000917942326
  0.6692036577754054  1.0065876053556415  0.5768670810738390
  0.5474963784749374  0.1252759471968288  0.5471899266808395
  0.8233658511437770  0.2601875984380681  0.3568193814137099
  0.6560867451007741  0.3037166007754745  0.3913420601223334
  0.0544448235585392  0.5899537328418600  0.4586274379459336
  0.5568243663702077  0.6712025813074638  0.1609135120607808
  0.9383898656290243  0.2425456394505265  0.4987059396873212
  0.0364275381218868  0.9823218565012046  0.9873501315789588
  0.2156254697260117  0.1577486377176494  0.2740077394301454
  0.3578965764014915  0.9371781152063462  0.2363517710277710
  0.5329554333287307  0.8536048663484721  0.9692972189661623
  0.2715821086284960  0.1728285210685678  0.7555526081923017
  0.1435295177301009  0.4012699216369695  0.7840439117855079
  0.2469776836264346  0.8411824586793918  0.1373831246318830
  0.2568730263407368  0.0138107614259257  0.3369584542270746
  0.1698958497169181  0.5631386804900611  0.3466236525695738
  0.6945144491582569  0.9298588849166846  0.9733215806620977
  0.2377106808526266  0.3148235604361100  0.6860875615924888
  0.9635653510576372  0.4823108593602847  0.0126524595278920
  0.2613543945367280  0.4966858840606678  0.8776610300469608
  0.8564697964589770  0.9012605841529073  0.2159529837497253
  0.9532096409321623  0.6560661474254528  0.8139474888110089
  0.0627031580307710  0.1347221712814827  1.0256145577831659
  0.8301023837139009  0.0631288381170925  0.6533872961342969
  0.0616067421254494  0.7425503196417382  0.5012951371659650
  0.4525036036454202  0.6252784551923383  0.4528114254675315
  0.6421111070364419  0.4371900768731507  0.7636442160542972
  0.3439098971623829  0.8037083891191540  0.6086510109542488
  0.5476038038890585  0.1761601893994069  0.3912707793129739
  0.2013301548845351  0.9121500186797077  0.9905270232622527
