O12
1.0
   4.9306029999999996    0.0000000000000000    0.0000000000000000
  -0.0107659999999990    5.1221710000000016    0.0000000000000000
  -0.1473289999999990   -0.0867989999999990    7.8973259999999987
O
12
direct
   0.4220649999999990    0.7295410000000000    0.4988600000000000 O0+
   0.5899980000000000    0.2811410000000000    0.9956940000000000 O0+
   0.2267150000000000    0.0858770000000000    0.2439230000000000 O0+
   0.7713639999999991    0.9118149999999990    0.7514830000000000 O0+
   0.2753220000000000    0.5844389999999990    0.0037560000000000 O0+
   0.7171250000000000    0.4081340000000000    0.5004250000000000 O0+
   0.0835149999999990    0.2192889999999990    0.7471310000000000 O0+
   0.9181650000000000    0.7763000000000000    0.2583519999999990 O0+
   0.0236460000000000    0.9753160000000000    0.7506309999999990 O0+
   0.9755940000000000    0.0206920000000000    0.2514090000000000 O0+
   0.4684190000000000    0.4830540000000000    0.4984269999999991 O0+
   0.5280730000000000    0.5244010000000000    0.9999100000000001 O0+
