Li (mp-1063005)
1.0
   0.0000000000000000    0.0000000000000000   -2.8888430000000000
  -2.4743819999999999   -4.2858340000000004    0.0000000000000000
  -2.4744510000000002    4.2858739999999997    0.0000000000000000
Li
3
direct
   0.0000000000000000    0.0000000000000000    0.0000000000000000 Li
   0.5000000000000000    0.3332420000000000    0.6666200000000001 Li
   0.5000000000000000    0.6667580000000000    0.3333800000000000 Li
