O16
1.0
   0.0000000000000000    8.7548560000000002    0.0000000000000000
   6.2202140000000004    0.0000000000000000    0.0000000000000000
   0.0000000000000000   -1.9083120000000000   -3.9533450000000001
O
16
direct
   0.4702260000000000    0.7436849999999990    0.8446089999999991 O0+
   0.5297739999999991    0.7436849999999990    0.1553910000000000 O0+
   0.5297739999999991    0.2563150000000000    0.1553910000000000 O0+
   0.4702260000000000    0.2563150000000000    0.8446089999999991 O0+
   0.7922520000000001    0.0000000000000000    0.8216799999999991 O0+
   0.2077479999999990    0.0000000000000000    0.1783200000000000 O0+
   0.8517779999999990    0.0000000000000000    0.1326409999999990 O0+
   0.1482220000000000    0.0000000000000000    0.8673590000000001 O0+
   0.9702259999999999    0.2436849999999990    0.8446089999999991 O0+
   0.0297739999999990    0.2436849999999990    0.1553910000000000 O0+
   0.0297739999999990    0.7563150000000001    0.1553910000000000 O0+
   0.9702259999999999    0.7563150000000001    0.8446089999999991 O0+
   0.2922520000000000    0.5000000000000000    0.8216799999999991 O0+
   0.7077479999999990    0.5000000000000000    0.1783200000000000 O0+
   0.3517779999999990    0.5000000000000000    0.1326409999999990 O0+
   0.6482220000000001    0.5000000000000000    0.8673590000000001 O0+
