Ba1 Ti1 O3
1.0
   4.1124669999999997    0.0000000000000000    0.0000000000000003
  -0.0000000000000003    4.1124669999999997    0.0000000000000003
   0.0000000000000000    0.0000000000000000    5.0356129999999997
Ba Ti O
1 1 3
direct
   0.0000000000000000    0.0000000000000000    0.0000000000000000 Ba2+
   0.5000000000000000    0.5000000000000000    0.5000000000000000 Ti4+
   0.0000000000000000    0.5000000000000000    0.5000000000000000 O2-
   0.5000000000000000    0.0000000000000000    0.5000000000000000 O2-
   0.0000000000000000    0.0000000000000000    0.5000000000000000 O2-
