O18
1.0
   2.5582046138330998   -4.4309403673160483    0.0000000000000000
   2.5582046138330998    4.4309403673160483    0.0000000000000000
   0.0000000000000000    0.0000000000000000   14.0908156043506541
O
18
direct
   0.8207929299999991    0.5026448900000000    0.2467100000000000 O0+
   0.6818519600000000    0.1792070700000000    0.2467100000000000 O0+
   0.4973551100000000    0.3181480399999990    0.2467100000000000 O0+
   0.1640217766666660    0.5125404033333331    0.0800433333333330 O0+
   0.4874595966666661    0.6514813733333330    0.0800433333333330 O0+
   0.3485186266666661    0.8359782233333330    0.0800433333333330 O0+
   0.4874595966666661    0.8359782233333330    0.5800433333333330 O0+
   0.3485186266666661    0.5125404033333331    0.5800433333333330 O0+
   0.1640217766666660    0.6514813733333330    0.5800433333333330 O0+
   0.8306884433333330    0.8458737366666661    0.4133766666666661 O0+
   0.1541262633333330    0.9848147066666660    0.4133766666666661 O0+
   0.0151852933333330    0.1693115566666660    0.4133766666666661 O0+
   0.1541262633333330    0.1693115566666660    0.9133766666666661 O0+
   0.0151852933333330    0.8458737366666661    0.9133766666666661 O0+
   0.8306884433333330    0.9848147066666660    0.9133766666666661 O0+
   0.4973551099999990    0.1792070699999990    0.7467100000000001 O0+
   0.8207929299999991    0.3181480399999990    0.7467100000000001 O0+
   0.6818519600000000    0.5026448900000000    0.7467100000000001 O0+
