Ti3
1.0
   2.2836874152833571   -3.9554626318764212    0.0000000000000000
   2.2836874152833571    3.9554626318764212    0.0000000000000000
   0.0000000000000000    0.0000000000000000    2.8262442700000001
Ti
3
direct
   0.0000000000000000    0.0000000000000000    0.0000000000000000 Ti0+
   0.3333333333333330    0.6666666666666661    0.5000000000000000 Ti0+
   0.6666666666666661    0.3333333333333330    0.5000000000000000 Ti0+
