S (mp-555760)
1.0
   7.8483720200000002    0.0000000200000000   -0.0000000000000000
  -3.9241849800000002    6.7968892199999997    0.0000000000000000
  -0.0000000000000000    0.0000000000000000    4.3718472700000000
S
9
direct
   0.1074698100000000    0.1074698100000000    0.5000000000000000 S
   0.4497097800000000    0.6897898700000000    0.7335943500000001 S
   0.6897898700000000    0.4497097800000000    0.2664056500000000 S
   0.8925301900000000   -0.0000000000000000    0.1666669999999990 S
   0.2400810900000000    0.5502902200000001    0.0669283500000000 S
   0.3102101300000000    0.7599189100000000    0.4002613500000000 S
   0.5502902200000001    0.2400810900000000    0.9330716500000000 S
   0.7599189100000000    0.3102101300000000    0.5997386500000000 S
  -0.0000000000000000    0.8925301900000000    0.8333330000000000 S
