O16
1.0
   0.0000000000000000    6.3633003770048342    0.0000000000000000
   7.9913245599999998    0.0000000000000000    0.0000000000000000
   0.0000000000000000   -1.1455949089055311   -3.2879198058977153
O
16
direct
   0.4326010350000000    0.3338407750000000    0.3486156300000000 O0+
   0.5673989650000001    0.3338407750000000    0.1513843699999990 O0+
   0.5673989650000001    0.6661592250000000    0.6513843699999990 O0+
   0.4326010350000000    0.6661592250000000    0.8486156300000001 O0+
   0.7429050750000000    0.9757171750000001    0.1967445099999990 O0+
   0.2570949249999990    0.9757171750000001    0.3032554900000000 O0+
   0.2570949249999990    0.0242828250000000    0.8032554900000001 O0+
   0.7429050750000000    0.0242828250000000    0.6967445099999990 O0+
   0.9326010350000000    0.8338407750000001    0.3486156300000000 O0+
   0.0673989649999990    0.8338407750000001    0.1513843699999990 O0+
   0.0673989649999990    0.1661592250000000    0.6513843699999990 O0+
   0.9326010350000000    0.1661592250000000    0.8486156300000001 O0+
   0.2429050750000000    0.4757171750000000    0.1967445099999990 O0+
   0.7570949249999991    0.4757171750000000    0.3032554900000000 O0+
   0.7570949249999991    0.5242828250000000    0.8032554900000001 O0+
   0.2429050750000000    0.5242828250000000    0.6967445099999990 O0+
