S (mp-684673)
1.0
   2.4425699999999999    0.0000000000000000    1.4102190000000001
   0.8141900000000001    2.3028779999999989    1.4102190000000001
   0.0000000000000000    0.0000000000000000    2.8204370000000001
S
1
direct
   0.0000000000000000    0.0000000000000000    0.0000000000000000 S
