Li (mp-567337)
1.0
  -3.4324000999999988    3.4324000999999988    3.4324000999999988
   3.4324000999999988   -3.4324000999999988    3.4324000999999988
   3.4324000999999988    3.4324000999999988   -3.4324000999999988
Li
8
direct
   0.0115994300000000    0.5000000000000000   -0.0000000000000000 Li
  -0.0000000000000000    0.0115994300000000    0.5000000000000000 Li
   0.9884005700000000    0.9884005700000000    0.9884005700000000 Li
  -0.0000000000000000    0.5115994300000000    0.5000000000000000 Li
   0.5115994300000000    0.5000000000000000   -0.0000000000000000 Li
   0.4884005700000000    0.4884005700000000    0.4884005700000000 Li
   0.5000000000000000   -0.0000000000000000    0.0115994300000000 Li
   0.5000000000000000    0.0000000000000000    0.5115994300000000 Li
