S 
 1.0000000000000000
    16.9906674449752657    0.0000000000000003    0.0000000000000012
     0.0000000000000003   16.9906674449752622    0.0000000000000002
     0.0000000000000015    0.0000000000000003   20.5540558417304879
 S  
   8
Direct
  0.3598103428218037  0.4999999999999999  0.4163031787295701
  0.4008796496488670  0.4008796496488670  0.4636968212704301
  0.4008796496488670  0.5991203503511330  0.4636968212704301
  0.5000000000000000  0.3598103428218037  0.4163031787295701
  0.5000000000000000  0.6401896571781962  0.4163031787295701
  0.5991203503511330  0.4008796496488670  0.4636968212704301
  0.5991203503511330  0.5991203503511330  0.4636968212704301
  0.6401896571781963  0.4999999999999999  0.4163031787295701
