Ba8
1.0
   7.1234839999999977    0.0000000000000000    0.0000000000000004
  -0.0000000000000006    9.2823600000000006    0.0000000000000006
   0.0000000000000000    0.0000000000000000    6.5785049999999998
Ba
8
direct
   0.5000000000000000    0.6441560000000001    0.2500000000000000 Ba0+
   0.0000000000000000    0.8558439999999990    0.7500000000000000 Ba0+
   0.0000000000000000    0.5134489999999990    0.2500000000000000 Ba0+
   0.5000000000000000    0.9865510000000000    0.7500000000000000 Ba0+
   0.0000000000000000    0.1441560000000000    0.2500000000000000 Ba0+
   0.5000000000000000    0.3558439999999990    0.7500000000000000 Ba0+
   0.5000000000000000    0.0134490000000000    0.2500000000000000 Ba0+
   0.0000000000000000    0.4865509999999990    0.7500000000000000 Ba0+
