Li2S (mp-32899)
1.0
   3.9963569999999988    0.0001809999999990   -0.0000040000000000
   1.9983350000000000    3.4608560000000002   -0.0000040000000000
  21.9803929999999994   12.6903860000000002   36.7510740000000027
Li S
22 11
direct
   0.5262070000000000    0.5262070000000000    0.0383550000000000 Li
   0.5221530000000000    0.5221530000000000    0.1303430000000000 Li
   0.7519220000000000    0.7519220000000000    0.0676539999999990 Li
   0.7552059999999990    0.7552059999999990    0.1576800000000000 Li
   0.5331990000000000    0.5331990000000000    0.2182220000000000 Li
   0.2377220000000000    0.2377220000000000    0.2988020000000000 Li
   0.7421940000000000    0.7421940000000000    0.2521300000000000 Li
   0.2461720000000000    0.2461720000000000    0.3874110000000000 Li
   0.2481209999999990    0.2481209999999990    0.4777949999999990 Li
   0.7465269999999991    0.7465269999999991    0.3418500000000000 Li
   0.7481519999999990    0.7481519999999990    0.4323229999999990 Li
   0.2484640000000000    0.2484640000000000    0.5685970000000000 Li
   0.7496579999999990    0.7496579999999990    0.5228110000000000 Li
   0.2485379999999990    0.2485379999999990    0.6594940000000000 Li
   0.7499070000000000    0.7499070000000000    0.6136550000000000 Li
   0.2483820000000000    0.2483820000000000    0.7504320000000000 Li
   0.7498900000000001    0.7498900000000001    0.7045610000000000 Li
   0.2476150000000000    0.2476150000000000    0.8415579999999990 Li
   0.7497090000000000    0.7497090000000000    0.7955150000000000 Li
   0.2393870000000000    0.2393870000000000    0.9347179999999990 Li
   0.7477290000000000    0.7477290000000000    0.8869900000000001 Li
   0.7547320000000000    0.7547320000000000    0.9760209999999990 Li
   0.9868410000000000    0.9868410000000000    0.0035429999999990 S
   0.9867370000000000    0.9867370000000000    0.0945090000000000 S
   0.9861340000000000    0.9861340000000000    0.1856100000000000 S
   0.9971460000000000    0.9971460000000000    0.3644010000000000 S
   0.9957659999999990    0.9957659999999990    0.2738830000000000 S
   0.0005740000000000    0.0005740000000000    0.4543959999999990 S
   0.0016680000000000    0.0016680000000000    0.6359190000000000 S
   0.0015780000000000    0.0015780000000000    0.7268279999999990 S
   0.0015000000000000    0.0015000000000000    0.5450420000000000 S
   0.0010800000000000    0.0010800000000000    0.8178749999999990 S
   0.9993890000000000    0.9993890000000000    0.9092619999999990 S
