O8
1.0
   3.0035460000000000    0.0000000000000000    0.0000000000000002
  -0.0000000000000002    3.7797700000000001    0.0000000000000002
   0.0000000000000000    0.0000000000000000    7.7976739999999998
O
8
direct
   0.5000000000000000    0.0000000000000000    0.9210980000000000 O0+
   0.0000000000000000    0.0000000000000000    0.5789020000000000 O0+
   0.5000000000000000    0.5000000000000000    0.4210980000000000 O0+
   0.0000000000000000    0.5000000000000000    0.0789020000000000 O0+
   0.0000000000000000    0.0000000000000000    0.4210980000000000 O0+
   0.5000000000000000    0.0000000000000000    0.0789020000000000 O0+
   0.0000000000000000    0.5000000000000000    0.9210980000000000 O0+
   0.5000000000000000    0.5000000000000000    0.5789020000000000 O0+
