Ba6 Ti6 O18
1.0
   2.8728329064488061   -4.9758925556250997    0.0000000000000000
   2.8728329064488061    4.9758925556250997    0.0000000000000000
   0.0000000000000000    0.0000000000000000   13.9992729500000603
Ba Ti O
6 6 18
direct
   0.6666666666666661    0.3333333333333330    0.9033439900000000 Ba2+
   0.3333333333333330    0.6666666666666661    0.4033439900000000 Ba2+
   0.3333333333333330    0.6666666666666661    0.0966560100000000 Ba2+
   0.6666666666666661    0.3333333333333330    0.5966560100000000 Ba2+
   0.0000000000000000    0.0000000000000000    0.2500000000000000 Ba2+
   0.0000000000000000    0.0000000000000000    0.7500000000000000 Ba2+
   0.6666666666666661    0.3333333333333330    0.1536771300000000 Ti4+
   0.3333333333333330    0.6666666666666661    0.6536771300000001 Ti4+
   0.3333333333333330    0.6666666666666661    0.8463228699999991 Ti4+
   0.6666666666666661    0.3333333333333330    0.3463228699999990 Ti4+
   0.0000000000000000    0.0000000000000000    0.0000000000000000 Ti4+
   0.0000000000000000    0.0000000000000000    0.5000000000000000 Ti4+
   0.1652686649999990    0.3305373299999990    0.9194696900000000 O2-
   0.6694626700000000    0.8347313350000001    0.9194696900000000 O2-
   0.1652686649999990    0.8347313350000001    0.9194696900000000 O2-
   0.8347313350000001    0.1652686649999990    0.4194696900000000 O2-
   0.3305373299999990    0.1652686649999990    0.0805303100000000 O2-
   0.8347313350000001    0.6694626700000000    0.4194696900000000 O2-
   0.3305373299999990    0.1652686649999990    0.4194696900000000 O2-
   0.1652686649999990    0.3305373299999990    0.5805303100000000 O2-
   0.1652686649999990    0.8347313350000001    0.5805303100000000 O2-
   0.8347313350000001    0.1652686649999990    0.0805303100000000 O2-
   0.8347313350000001    0.6694626700000000    0.0805303100000000 O2-
   0.6694626700000000    0.8347313350000001    0.5805303100000000 O2-
   0.0361921500000000    0.5180960750000000    0.7500000000000000 O2-
   0.5180960750000000    0.0361921500000000    0.2500000000000000 O2-
   0.5180960750000000    0.4819039250000000    0.2500000000000000 O2-
   0.4819039249999990    0.5180960750000000    0.7500000000000000 O2-
   0.4819039250000000    0.9638078499999990    0.7500000000000000 O2-
   0.9638078499999990    0.4819039249999990    0.2500000000000000 O2-
