S (mp-1179641)
1.0
   5.8910770000000001   -1.1851190000000000   -0.0035369999999990
  -1.2644470000000001    5.9019259999999996   -0.0034900000000000
  -0.0002170000000000    0.0040010000000000    3.7726829999999998
S
4
direct
   0.3324910000000000    0.9758559999999999    0.7496419999999990 S
   0.6671910000000000    0.0236840000000000    0.7497720000000000 S
   0.0210100000000000    0.6662420000000000    0.2501000000000000 S
   0.9793090000000000    0.3342179999999990    0.2504850000000000 S
