Li BCC (Im-3m, #229)
1.0
   3.5093   0.0000   0.0000
   0.0000   3.5093   0.0000
   0.0000   0.0000   3.5093
Li
2
Direct
  0.000000   0.000000   0.000000
  0.500000   0.500000   0.500000
