Li2S (mp-557142)
1.0
   1.9646560000000000   -3.4028839999999998    0.0000000000000000
   1.9646560000000000    3.4028839999999998    0.0000000000000000
   0.0000000000000000    0.0000000000000000    7.1071350000000004
Li S
4 2
direct
   0.3333330000000000    0.6666670000000000    0.5921250000000000 Li
   0.3333330000000000    0.6666670000000000    0.9078750000000000 Li
   0.6666670000000000    0.3333330000000000    0.4078750000000000 Li
   0.6666670000000000    0.3333330000000000    0.0921250000000000 Li
   0.6666670000000000    0.3333330000000000    0.7500000000000000 S
   0.3333330000000000    0.6666670000000000    0.2500000000000000 S
