S 
 1.0000000000000000
     5.8618126329003175    0.0307282510329247   -1.0053203506051689
    -2.0192875454953461   10.2078721473601526   -0.9789638457605702
    -0.0207880715076288    0.2808159823445356   16.5811103263239765
 S  
  28
Direct
  0.0747949788843734  0.4539894962522508  0.7195045091937747
  0.7915141327060234  0.5564615598931705  0.1584725426688844
  0.4175654105139381  0.9695738787476713  0.3137281965421652
  0.3219011530891533  0.4281734297103794  0.6489774495793603
  0.3057864272818152  0.9875020615640857  0.5884867426634335
  0.1002379356589956  0.0065217025278125  0.8835759352629278
  0.6942135727181811  0.0124979384359592  0.4115132573365624
  0.4991797485334661  0.6088337018865151  0.6318834894295732
  0.5509726221506126  0.9553547767237064  0.1219479292072676
  0.2901288221484414  0.6757502252975427  0.5378816881111385
  0.0424770839440945  0.1831734796434175  0.1650191035672471
  0.5032698529955776  0.1477865894910784  0.7792507885542578
  0.6780988469108332  0.5718265702896632  0.3510225504206355
  0.9575229160558998  0.8168265203566247  0.8349808964327492
  0.6679069774783063  0.3704447912453980  0.0992140193810241
  0.4967301470044100  0.8522134105089636  0.2207492114457385
  0.8819689857509254  0.1955217646296937  0.4070291128797948
  0.8997620643410020  0.9934782974722283  0.1164240647370688
  0.1180310142490633  0.8044782353703503  0.5929708871202030
  0.9543201249012634  0.2992240400205547  0.0735977267795829
  0.9252050211156242  0.5460105037477959  0.2804954908062255
  0.2084858672939827  0.4435384401068806  0.8415274573311152
  0.0456798750987340  0.7007759599794912  0.9264022732204166
  0.7098711778515476  0.3242497747025012  0.4621183118888598
  0.3320930225217007  0.6295552087546530  0.9007859806189751
  0.5824345894860548  0.0304261212523721  0.6862718034578312
  0.4490273778493811  0.0446452232763346  0.8780520707927293
  0.5008202514665243  0.3911662981135282  0.3681165105704227
