O8
1.0
   4.3417128800000002    0.0000000000000000    0.0000000000000003
  -0.0000000000000003    4.3417128800000002    0.0000000000000003
   0.0000000000000000    0.0000000000000000    4.3417128800000002
O
8
direct
   0.2500000000000000    0.7500000000000000    0.7500000000000000 O0+
   0.0000000000000000    0.0000000000000000    0.0000000000000000 O0+
   0.2500000000000000    0.2500000000000000    0.2500000000000000 O0+
   0.0000000000000000    0.5000000000000000    0.5000000000000000 O0+
   0.7500000000000000    0.7500000000000000    0.2500000000000000 O0+
   0.5000000000000000    0.0000000000000000    0.5000000000000000 O0+
   0.7500000000000000    0.2500000000000000    0.7500000000000000 O0+
   0.5000000000000000    0.5000000000000000    0.0000000000000000 O0+
