S 
 1.0000000000000000
     6.1200938026627263    0.2080341367728784   -2.7898125126598563
    -4.3952164845389659    4.2638404568333881   -2.7899134166344615
     0.0801913873922300    0.2080759402417388    6.7254853529374641
 S  
   6
Direct
  0.2287866352656217  0.1264789193803617  0.9029340148626941
  0.9029340059504639  0.2287866323644904  0.1264789169578107
  0.1264789181441757  0.9029340114169687  0.2287866366403844
  0.7712133647343740  0.8735210806196352  0.0970659851373046
  0.0970659940495301  0.7712133676355062  0.8735210830421862
  0.8735210818558194  0.0970659885830284  0.7712133633596138
