P 
 1.0000000000000000
     3.3316091038396896    0.0000000000000004   -0.0000000000000026
     0.0000000000000044   36.3319590879134893   -0.0000000000000174
    -0.0000000000000037   -0.0000000000000023    4.2219380119571204
 P  
   4
Direct
 -0.0000000000000002  0.1178698873395314  0.5737930132751302
 -0.0000000000000002  0.1779391126604689  0.4262069867248706
  0.4999999999999997  0.1779391126604689  0.0737930132751301
  0.5000000000000000  0.1178698873395314  0.9262069867248707
