P (mp-1014013)
1.0
   3.2837277199999999   -0.0000000000000000    0.0000000000000000
  -0.0000000000000000   34.8570309899999984   -0.0000000000000000
   0.0000000000000000   -0.0000000000000000    4.6320847100000000
P
4
direct
   0.0000000000000000    0.1181659300000000    0.5921507200000000 P
  -0.0000000000000000    0.1776430700000000    0.4078492800000000 P
   0.5000000000000000    0.1776430700000000    0.0921507200000000 P
   0.5000000000000000    0.1181659300000000    0.9078492800000000 P
