O16
1.0
   0.0000000000000000    9.3545232446802249    0.0000000000000000
   7.9193213799999977    0.0000000000000000    0.0000000000000000
   0.0000000000000000   -1.5237601880940761   -3.9518170362182210
O
16
direct
   0.0338795050000000    0.7150955850000000    0.9005103300000000 O0+
   0.9661204950000001    0.7150955850000000    0.0994896699999990 O0+
   0.9661204950000001    0.2849044149999990    0.0994896699999990 O0+
   0.0338795050000000    0.2849044149999990    0.9005103300000000 O0+
   0.7561677899999990    0.5000000000000000    0.3533610499999990 O0+
   0.2438322100000000    0.5000000000000000    0.6466389500000000 O0+
   0.6888527999999990    0.5000000000000000    0.5531805400000001 O0+
   0.3111472000000000    0.5000000000000000    0.4468194599999991 O0+
   0.5338795050000000    0.2150955850000000    0.9005103300000000 O0+
   0.4661204949999990    0.2150955850000000    0.0994896699999990 O0+
   0.4661204949999990    0.7849044150000001    0.0994896699999990 O0+
   0.5338795050000000    0.7849044150000001    0.9005103300000000 O0+
   0.2561677899999990    0.0000000000000000    0.3533610499999990 O0+
   0.7438322100000001    0.0000000000000000    0.6466389500000000 O0+
   0.1888527999999990    0.0000000000000000    0.5531805400000001 O0+
   0.8111472000000001    0.0000000000000000    0.4468194599999991 O0+
