S (mp-666931)
1.0
   0.0000000000000000    7.3865359999999987   12.7347450000000002
   6.1624540000000003    0.0000000000000000   12.7347450000000002
   6.1624540000000003    7.3865359999999987    0.0000000000000000
S
32
direct
   0.8676060000000000    0.0436950000000000    0.7466210000000000 S
   0.8513590000000000    0.7377750000000000    0.0417750000000000 S
   0.7461000000000000    0.8425530000000000    0.8670430000000000 S
   0.0402670000000000    0.8722880000000000    0.8503870000000000 S
   0.1286489999999990    0.9593809999999990    0.2629840000000000 S
   0.1573119999999990    0.2541800000000000    0.9623109999999990 S
   0.2605360000000000    0.1476660000000000    0.1305030000000000 S
   0.9548249999999990    0.1337470000000000    0.1525780000000000 S
   0.7693580000000000    0.2388680000000000    0.7945409999999991 S
   0.6920339999999990    0.7976179999999990    0.2401509999999990 S
   0.7934960000000000    0.6955100000000001    0.7626140000000000 S
   0.2471370000000000    0.7629570000000000    0.6973990000000000 S
   0.2300579999999990    0.7562240000000000    0.2037179999999990 S
   0.3019090000000000    0.2091300000000000    0.7528060000000000 S
   0.2091410000000000    0.3022740000000000    0.2361349999999990 S
   0.7522040000000000    0.2330880000000000    0.3057189999999990 S
   0.8629260000000000    0.2949800000000000    0.6172590000000000 S
   0.7309530000000000    0.6174640000000000    0.2935879999999990 S
   0.6233890000000000    0.7210289999999990    0.8607929999999990 S
   0.2941749999999990    0.8565959999999990    0.7262569999999990 S
   0.1460870000000000    0.6986100000000001    0.3789030000000000 S
   0.2762719999999990    0.3754320000000000    0.7053210000000000 S
   0.3784249999999990    0.2724050000000000    0.1450970000000000 S
   0.7060050000000000    0.1365549999999990    0.2739990000000000 S
   0.0289310000000000    0.2291689999999990    0.6712580000000000 S
   0.5738780000000000    0.6729839999999990    0.2272450000000000 S
   0.6702800000000001    0.5759400000000000    0.0264310000000000 S
   0.2310630000000000    0.0209950000000000    0.5735270000000000 S
   0.9710939999999991    0.7710969999999990    0.3282339999999990 S
   0.4228470000000000    0.3304840000000000    0.7682970000000000 S
   0.3263129999999990    0.4259570000000000    0.9800719999999991 S
   0.7719450000000000    0.9754149999999990    0.4268610000000000 S
