P (mp-723897)
1.0
   0.0000000000000000    0.0000000000000000    7.4000000000000004
   9.1999999999999993    0.0000000000000000    0.0000000000000000
   0.0000000000000000    9.1999999999999993    0.0000000000000000
P
4
direct
   0.0000000000000000    0.5000000000000000    0.5000000000000000 P
   0.0000000000000000    0.0000000000000000    0.0000000000000000 P
   0.6250000000000000    0.0000000000000000    0.5000000000000000 P
   0.3750000000000000    0.5000000000000000    0.0000000000000000 P
