Li (mp-976411)
1.0
   3.0343855299999989   -0.0000000000000000   -0.0000000000000000
  -1.5171932699999999    2.6278549999999998   -0.0000000000000000
  -0.0000000000000000    0.0000000000000000   10.2162076699999993
Li
4
direct
   0.0000000000000000   -0.0000000000000000    0.0000010000000000 Li
   0.3333330000000000    0.6666650000000000    0.2500000000000000 Li
   0.0000000000000000   -0.0000000000000000    0.4999989999999990 Li
   0.6666679999999990    0.3333330000000000    0.7500000000000000 Li
