GeS2 (mp-622213)
1.0
  -5.6377090000000001    5.6377090000000001    9.5985820000000004
   5.6377090000000001   -5.6377090000000001    9.5985820000000004
   5.6377090000000001    5.6377090000000001   -9.5985820000000004
Ge S
16 32
direct
   0.7784090000000000    0.3112810000000000    0.7175389999999990 Ge
   0.4715910000000000    0.6891300000000000    0.0328720000000000 Ge
   0.3108700000000000    0.3437420000000000    0.7824610000000000 Ge
   0.9391300000000000    0.2215909999999990    0.5328720000000000 Ge
   0.8108700000000001    0.0284090000000000    0.9671280000000000 Ge
   0.1887190000000000    0.7215910000000000    0.2824609999999990 Ge
   0.0612809999999990    0.8437420000000000    0.0328720000000000 Ge
   0.2784089999999990    0.5608700000000001    0.4671280000000000 Ge
   0.5937420000000000    0.0608700000000000    0.2824609999999990 Ge
   0.0937419999999990    0.8112809999999990    0.5328720000000000 Ge
   0.6562580000000000    0.4387189999999990    0.9671280000000000 Ge
   0.9715910000000000    0.9387190000000000    0.7824610000000000 Ge
   0.6887190000000000    0.4062580000000000    0.4671280000000000 Ge
   0.4391300000000000    0.9062580000000000    0.7175389999999990 Ge
   0.5612810000000000    0.5284090000000000    0.2175389999999990 Ge
   0.1562579999999990    0.1891300000000000    0.2175389999999990 Ge
   0.4660180000000000    0.2657609999999990    0.7328359999999990 S
   0.1250000000000000    0.6670860000000000    0.0420860000000000 S
   0.6122390000000000    0.1122389999999990    0.5000000000000000 S
   0.6250000000000000    0.0829140000000000    0.9579139999999990 S
   0.5157610000000000    0.2160180000000000    0.2328360000000000 S
   0.7668180000000000    0.9670749999999991    0.7328359999999990 S
   0.1250000000000000    0.1670859999999990    0.5420860000000000 S
   0.9170860000000000    0.8750000000000000    0.5420860000000000 S
   0.0157610000000000    0.7829250000000000    0.2997420000000000 S
   0.6250000000000000    0.5829139999999990    0.4579140000000000 S
   0.1377610000000000    0.1377610000000000    0.0000000000000000 S
   0.2839820000000000    0.9842390000000000    0.7671640000000000 S
   0.8622390000000000    0.8622390000000000    0.0000000000000000 S
   0.5329250000000000    0.7331820000000000    0.2671640000000000 S
   0.1122389999999990    0.6122390000000000    0.5000000000000000 S
   0.6377610000000000    0.6377610000000000    0.0000000000000000 S
   0.8877609999999990    0.3877609999999990    0.5000000000000000 S
   0.7839820000000000    0.0168180000000000    0.2997420000000000 S
   0.4831820000000000    0.7160179999999990    0.7002579999999990 S
   0.2668180000000000    0.5339820000000000    0.7997420000000000 S
   0.4170859999999990    0.8750000000000000    0.0420860000000000 S
   0.3877609999999990    0.8877609999999990    0.5000000000000000 S
   0.9660179999999990    0.2331820000000000    0.2002580000000000 S
   0.9831820000000000    0.2829250000000000    0.7671640000000000 S
   0.7342390000000000    0.4670749999999990    0.2002580000000000 S
   0.0329249999999990    0.7657609999999990    0.7997420000000000 S
   0.8329139999999990    0.3750000000000000    0.9579139999999990 S
   0.3622390000000000    0.3622390000000000    0.0000000000000000 S
   0.2170750000000000    0.5168180000000000    0.2328360000000000 S
   0.7170750000000000    0.4842390000000000    0.7002579999999990 S
   0.2342390000000000    0.0339820000000000    0.2671640000000000 S
   0.3329140000000000    0.3750000000000000    0.4579140000000000 S
