S 
 1.0000000000000000
    -0.0032641975610475   10.1395333068787394   11.9252771555305337
     5.4272767493378993    0.0086978036850920   11.9196688316710695
     5.4351036938623958   10.1320470730687280   -0.0002145685556438
 S  
  32
Direct
  0.9124527977791431  0.0106036161293586  0.7368523209237489
  0.4486630960249505  0.3443006410944602  0.7463791486702189
  0.9611111313468172  0.7440621884901132  0.3465930067581403
  0.2551836660680231  0.0377797275110074  0.5516725077680622
  0.6544458275619174  0.5512101024492990  0.0396171473670169
  0.5537231743642446  0.6523183951258088  0.2538112958643016
  0.0405786878302511  0.2524276589665502  0.6537264903872960
  0.7475056336477039  0.0661690323470880  0.2903195596681892
  0.3953634620260943  0.2900016525174056  0.0686074024569568
  0.2913884026518398  0.3941974376532627  0.7464567604641338
  0.0671673214916989  0.7458789038840045  0.3970922850987307
  0.2542747810373366  0.9310893695713414  0.7096136255018518
  0.6040388454697614  0.7091975370177525  0.9328719847737834
  0.7114820065708692  0.6019472486282765  0.2531476074566590
  0.9327266022813038  0.2523656890812592  0.6048045456101118
  0.7668608794597794  0.2005163146496425  0.3132782309758133
  0.2188798888929650  0.3127975404935966  0.2018809333821581
  0.3140240038595526  0.2176687461374338  0.7669350161086315
  0.2006353381208555  0.7660926082589768  0.2206338208702764
  0.2345680984384564  0.7974927009060837  0.6860877535776939
  0.7809563619034589  0.6856302820161919  0.7989614774237551
  0.6881623130731281  0.7789030171426276  0.2337709089136133
  0.7990161024828966  0.2328242249593696  0.7820469817565099
  0.9889826334026430  0.0867546565575353  0.1595763947646139
  0.2646904426709458  0.1583463252752106  0.0884716213688714
  0.1603704619555406  0.2630040035310593  0.9889874412719921
  0.0872964217989435  0.9883226569218846  0.2649579090937522
  0.0124476487699737  0.9108795554048298  0.8405559122984241
  0.7360378244221377  0.8391492314611159  0.9125471004610249
  0.8409006301969403  0.7341223590352118  0.0115073908642200
  0.3459062749312221  0.4471605885487293  0.9608914951005167
  0.7467332394743638  0.9588519882325058  0.4477709229996757
