S (mp-77)
1.0
   0.0013131545462420    6.6705048623284480   12.3268288368722025
   5.4020252974096881    0.0035793174816520   12.3249297963652431
   5.4019447176374333    6.6659502910864781    0.0015403804565450
S
32
direct
   0.8573922829201370    0.0456905523223410    0.7434974212274731 S
   0.8541077349416141    0.7414846597375940    0.0467544651956750 S
   0.7445494645973830    0.8517803329168241    0.8563275562084691 S
   0.0459505348943450    0.8567456811884141    0.8554655722787171 S
   0.1426977576219030    0.9526734359174250    0.2577397168295970 S
   0.1466468712993530    0.2562278661370740    0.9546222859115401 S
   0.2586138762300010    0.1442473027701390    0.1432454209864240 S
   0.9529138767146741    0.1427350347653370    0.1475070893228150 S
   0.7407759451206380    0.2685564738602220    0.8048365829526380 S
   0.6849447522614650    0.8047258487540810    0.2690484476099320 S
   0.8072044367066050    0.6833372803392590    0.7393961954909961 S
   0.2693848897275400    0.7387100095898801    0.6877996679096221 S
   0.2595767742230630    0.7301766050670720    0.1942258744235010 S
   0.3141349622174090    0.1946912632375870    0.7314377702672631 S
   0.1971856951293910    0.3116282303167850    0.2604454762640100 S
   0.7303379190120931    0.2594992900898980    0.3161984577752500 S
   0.8396194661970851    0.3144030850550760    0.6119189065692221 S
   0.7325653121190071    0.6122133490664651    0.3164554240798970 S
   0.6142048266221630    0.7317547641454990    0.8358706336660900 S
   0.3171596772345850    0.8356992885845991    0.7356283703292801 S
   0.1628891069122530    0.6818763741239801    0.3865858858532000 S
   0.2656240377475000    0.3877929046541190    0.6847839012857760 S
   0.3898766405300760    0.2636764891999800    0.1619563718260080 S
   0.6828161751374251    0.1622416860456610    0.2684126245725120 S
   0.0138559688007120    0.2463909760786080    0.6739257434820580 S
   0.5652471345704341    0.6733495016732001    0.2474991575525890 S
   0.6744342900652210    0.5644417987841941    0.0107898225109430 S
   0.2507251300233260    0.0091719832682950    0.5668298074954300 S
   0.9878247239890990    0.7504878697590480    0.3258295082984900 S
   0.4342796655504770    0.3260278692183860    0.7513266113916971 S
   0.3275399186455411    0.4327227917852520    0.9885630353253981 S
   0.7514941522374771    0.9869054015476800    0.4355031951074720 S
