S 
 1.0000000000000000
    -0.0000000000000004   -0.0000000000000002    3.1243681458852097
     4.4096058482617506    0.0000000000000000   -0.0000000000000005
     0.0000000000000000    4.4096058482617506   -0.0000000000000002
 S  
   4
Direct
  0.5000000000000003  0.2499605615109093  0.7500394384890894
  0.5000000000000002  0.7500394384890894  0.2499605615109093
  0.0000000000000000  0.2500394384890898  0.2500394384890898
  0.0000000000000000  0.7499605615109101  0.7499605615109101
