S (mp-1063988)
1.0
   0.0000000000000000    0.0000000000000000    3.1832120000000002
   4.4322860000000004    0.0000000000000000    0.0000000000000000
   0.0000000000000000    4.4322860000000004    0.0000000000000000
S
4
direct
   0.5000000000000000    0.2499539999999990    0.7500460000000000 S
   0.5000000000000000    0.7500460000000000    0.2499539999999990 S
   0.0000000000000000    0.2500460000000000    0.2500460000000000 S
   0.0000000000000000    0.7499540000000000    0.7499540000000000 S
