O10
1.0
   5.1602959999999998    0.0000000000000000    0.0000000000000000
  -0.0235170000000000    5.2401920000000004    0.0000000000000000
  -0.0510729999999990   -0.0244059999999990    5.8899410000000003
O
10
direct
   0.8662810000000000    0.4996179999999991    0.9885499999999990 O0+
   0.0948820000000000    0.4264179999999990    0.9808969999999991 O0+
   0.3746339999999990    0.9880890000000000    0.5112369999999981 O0+
   0.6016070000000000    0.0672390000000000    0.5235959999999991 O0+
   0.5009819999999990    0.8708950000000000    0.0148809999999990 O0+
   0.4272400000000000    0.0961819999999990    0.0187879999999990 O0+
   0.9257869999999990    0.4143739999999990    0.4828339999999990 O0+
   0.9864529999999990    0.6439049999999999    0.4869869999999991 O0+
   0.6108680000000000    0.3783990000000000    0.5005429999999991 O0+
   0.1112659999999990    0.1148810000000000    0.9916849999999980 O0+
