O4
1.0
   1.2290972965957829   -2.1288589651494498    0.0000000000000000
   1.2290972965957829    2.1288589651494498    0.0000000000000000
   0.0000000000000000    0.0000000000000000    7.8073262400000001
O
4
direct
   0.3333333333333330    0.6666666666666661    0.3281033100000000 O0+
   0.6666666666666661    0.3333333333333330    0.6718966900000000 O0+
   0.6666666666666661    0.3333333333333330    0.8281033100000000 O0+
   0.3333333333333330    0.6666666666666661    0.1718966899999990 O0+
