AgI wurtzite (beta-phase, P6_3mc, space group 186)
   1.00000000
     4.5922   0.0000   0.0000
    -2.2961   3.9762   0.0000
     0.0000   0.0000   7.5098
Ag   I
2    2
Direct
  0.333333   0.666667   0.000000
  0.666667   0.333333   0.500000
  0.333333   0.666667   0.374000
  0.666667   0.333333   0.874000
