O1
1.0
   0.0000000000000000    3.0956619999999999    0.0000000000000000
   1.5203660000000001    0.0000000000000000    0.0000000000000000
   0.0000000000000000   -1.0316310000000000   -4.6001269999999979
O
1
direct
   0.0000000000000000    0.5000000000000000    0.5000000000000000 O0+
