Li4GeS4 (mp-30249)
1.0
   6.1485184400000001   -0.0000000000000000    0.0000000000000000
  -0.0000000000000000    7.7375661999999998    0.0000000000000000
   0.0000000000000000    0.0000000000000000   14.0316793400000002
Li Ge S
16 4 16
direct
   0.6278542900000000    0.2500000000000000    0.4129912800000000 Li
   0.1278542900000000    0.7500000000000000    0.0870087200000000 Li
   0.3721457100000000    0.7500000000000000    0.5870087200000000 Li
   0.8721457100000000    0.2500000000000000    0.9129912800000001 Li
   0.6910514700000000   -0.0005898200000000    0.1777168100000000 Li
   0.1910514700000000    0.0005898200000000    0.3222831900000000 Li
   0.3089485300000000    0.4994101800000000    0.8222831900000001 Li
   0.8089485300000000    0.5005898200000000    0.6777168100000001 Li
   0.3089485300000000    0.0005898200000000    0.8222831900000001 Li
   0.8089485300000000   -0.0005898200000000    0.6777168100000001 Li
   0.6910514700000000    0.5005898200000000    0.1777168100000000 Li
   0.1910514700000000    0.4994101800000000    0.3222831900000000 Li
   0.5000000000000000   -0.0000000000000000   -0.0000000000000000 Li
  -0.0000000000000000   -0.0000000000000000    0.5000000000000000 Li
   0.5000000000000000    0.5000000000000000   -0.0000000000000000 Li
  -0.0000000000000000    0.5000000000000000    0.5000000000000000 Li
   0.8507484600000000    0.7500000000000000    0.9111626500000001 Ge
   0.1492515400000000    0.2500000000000000    0.0888373500000000 Ge
   0.6492515400000000    0.7500000000000000    0.4111626500000000 Ge
   0.3507484600000000    0.2500000000000000    0.5888373500000000 Ge
   0.2686468600000000    0.2500000000000000    0.9376354000000000 S
   0.2313531400000000    0.2500000000000000    0.4376354000000000 S
   0.7686468600000000    0.7500000000000000    0.5623646000000000 S
   0.7313531400000001    0.7500000000000000    0.0623646000000000 S
   0.7823936400000000    0.9861005800000000    0.3438893600000000 S
   0.2823936400000000    0.0138994200000000    0.1561106400000000 S
   0.2176063600000000    0.4861005800000000    0.6561106400000000 S
   0.7176063600000000    0.5138994200000000    0.8438893600000000 S
   0.2176063600000000    0.0138994200000000    0.6561106400000000 S
   0.7176063600000000    0.9861005800000000    0.8438893600000000 S
   0.7823936400000000    0.5138994200000000    0.3438893600000000 S
   0.2823936400000000    0.4861005800000000    0.1561106400000000 S
   0.7900366900000000    0.2500000000000000    0.0860873100000000 S
   0.2900366900000000    0.7500000000000000    0.4139126900000000 S
   0.2099633100000000    0.7500000000000000    0.9139126900000000 S
   0.7099633100000000    0.2500000000000000    0.5860873100000000 S
