O4
1.0
   1.5321979999999999    0.0000000000000000    0.0000000000000001
  -0.0000000000000003    4.6154200000000003    0.0000000000000003
   0.0000000000000000    0.0000000000000000    5.7016309999999999
O
4
direct
   0.5000000000000000    0.3336979999999991    0.7500000000000000 O0+
   0.0000000000000000    0.1663020000000000    0.2500000000000000 O0+
   0.0000000000000000    0.8336979999999991    0.7500000000000000 O0+
   0.5000000000000000    0.6663020000000001    0.2500000000000000 O0+
