S (mp-994911)
1.0
  16.8291634999999999    0.0000000000000000    0.0000000000000000
   0.0000000000000000   16.8291634999999999    0.0000000000000000
   0.0000000000000000    0.0000000000000000   20.4474322099999988
S
8
direct
   0.3598691600000000    0.5000000000000000    0.4163701100000000 S
   0.4009238100000000    0.4009238100000000    0.4636298900000000 S
   0.4009238100000000    0.5990761900000000    0.4636298900000000 S
   0.5000000000000000    0.3598691600000000    0.4163701100000000 S
   0.5000000000000000    0.6401308400000000    0.4163701100000000 S
   0.5990761900000000    0.4009238100000000    0.4636298900000000 S
   0.5990761900000000    0.5990761900000000    0.4636298900000000 S
   0.6401308400000000    0.5000000000000000    0.4163701100000000 S
