O16
1.0
   0.0000000000000000    8.7238404605274980    0.0000000000000000
   7.2531067941044540    0.0000000000000000    0.0000000000000000
   0.0000000000000000   -1.8353632620211000   -3.7236786701613389
O
16
direct
   0.9657808744309621    0.2800405138387970    0.8359198810052101 O0+
   0.0342191255690370    0.2800405138387970    0.1640801189947890 O0+
   0.0342191255690370    0.7199594861612021    0.1640801189947890 O0+
   0.9657808744309621    0.7199594861612021    0.8359198810052101 O0+
   0.2434968076230670    0.5000000000000000    0.8402175954189410 O0+
   0.7565031923769321    0.5000000000000000    0.1597824045810580 O0+
   0.3119022976862160    0.5000000000000000    0.1683998920857160 O0+
   0.6880977023137831    0.5000000000000000    0.8316001079142831 O0+
   0.4657808744309621    0.7800405138387970    0.8359198810052101 O0+
   0.5342191255690381    0.7800405138387970    0.1640801189947890 O0+
   0.5342191255690381    0.2199594861612020    0.1640801189947890 O0+
   0.4657808744309621    0.2199594861612020    0.8359198810052101 O0+
   0.7434968076230670    0.0000000000000000    0.8402175954189410 O0+
   0.2565031923769320    0.0000000000000000    0.1597824045810580 O0+
   0.8119022976862160    0.0000000000000000    0.1683998920857160 O0+
   0.1880977023137830    0.0000000000000000    0.8316001079142831 O0+
