GeS2 (mp-2017755)
1.0
  22.6712482800000004    0.0000000000000000    0.0000000000000000
   0.0000000000000000    6.8703672400000002   -0.1312482300000000
   0.0000000000000000    3.1978614699999999    6.0817153499999996
Ge S
12 24
direct
   0.0119773900000000    0.0095912400000000    0.0027459900000000 Ge
   0.9880226100000000    0.5095912400000000    0.0027459900000000 Ge
   0.2619433900000000    0.2472895500000000    0.7480003000000000 Ge
   0.7380566100000000    0.7472895500000000    0.7480003000000000 Ge
   0.4878495200000000    0.0027227600000000    0.5089094800000000 Ge
   0.5121504800000000    0.5027227600000000    0.5089094800000000 Ge
   0.2376591800000000    0.2475875900000000    0.2476257600000000 Ge
   0.7623408200000000    0.7475875900000000    0.2476257600000000 Ge
   0.1250395500000000    0.3877769100000000    0.8661996200000001 Ge
   0.8749604500000000    0.8877769100000000    0.8661996200000001 Ge
   0.3750492800000000    0.3822802500000000    0.3703390000000000 Ge
   0.6249507200000000    0.8822802500000000    0.3703390000000000 Ge
   0.0517194200000000    0.6273151200000000    0.7255813200000000 S
   0.9482805800000000    0.1273151200000000    0.7255813200000000 S
   0.1021978800000000    0.0738756800000000    0.8626146200000000 S
   0.8978021200000000    0.5738756800000000    0.8626146200000000 S
   0.1989101200000000    0.5262343400000000    0.6289578100000001 S
   0.8010898800000000    0.0262343400000000    0.6289578100000001 S
   0.3017333900000000    0.5235887100000000    0.1307394400000000 S
   0.6982666100000000    0.0235887100000000    0.1307394400000000 S
   0.4487505600000000    0.6205191200000000    0.2309146400000000 S
   0.5512494400000000    0.1205191200000000    0.2309146400000000 S
   0.9963038300000000    0.1557150800000000    0.2288332200000000 S
   0.0036961700000000    0.6557150800000000    0.2288332200000000 S
   0.1474496300000000    0.3882253400000000    0.1818851700000000 S
   0.8525503700000000    0.8882253400000000    0.1818851700000000 S
   0.2457197700000000    0.0217366999999990    0.6016274100000000 S
   0.7542802300000000    0.5217366999999991    0.6016274100000000 S
   0.2532000700000000    0.0213466800000000    0.1015827400000000 S
   0.7467999300000000    0.5213466800000001    0.1015827400000000 S
   0.3525188900000000    0.3839061800000000    0.6855009000000000 S
   0.6474811100000000    0.8839061800000000    0.6855009000000000 S
   0.3974003600000000    0.0663003300000000    0.3703566900000000 S
   0.6025996400000000    0.5663003300000000    0.3703566900000000 S
   0.4963481400000000    0.6489904200000001    0.7348838900000000 S
   0.5036518600000001    0.1489904200000000    0.7348838900000000 S
