O4
1.0
   0.0000000000000000    5.7028057065333089    0.0000000000000000
   3.3248318800000001    0.0000000000000000    0.0000000000000000
   0.0000000000000000   -2.3944914034358900   -3.6470501823735768
O
4
direct
   0.9745461700000000    0.0000000000000000    0.8444259800000000 O0+
   0.5254538300000000    0.5000000000000000    0.1555740199999990 O0+
   0.4745461700000000    0.5000000000000000    0.8444259800000000 O0+
   0.0254538300000000    0.0000000000000000    0.1555740199999990 O0+
