S 
 1.0000000000000000
     8.8567765023102378   -0.0000098797189707    0.0001394255489606
    -0.0000177494564241   17.7497354378371490    0.0039503164404792
     0.0003015284137446    0.0047552932103429   19.9453732868296250
 S  
  88
Direct
  0.9731678358974094  0.4113605980690702  0.6093668739228316
  0.3523042792482018  0.2933424542267349  0.6123385282699605
  0.6069095635012633  0.3104041980249138  0.8704181843245085
  0.4312078761823084  0.2736512291262552  0.8116095727308531
  0.8509007603529358  0.4526473351538883  0.2680309658202057
  0.5407220270443991  0.1366675945333802  0.1095214291892879
  0.8541391944045842  0.6574560547360798  0.9777650684928935
  0.7377026558892945  0.1031540825761790  0.5827817389985308
  0.5200698485433755  0.6665231412733901  0.7779532639126177
  0.7118987334247275  0.7618554679903077  0.5176353351630479
  0.9550405434044660  0.6133159073787444  0.7770055957028630
  0.6476878173007025  0.7933576647287696  0.6123294173905270
  0.5100029435245133  0.9666137619042677  0.6493038850880533
  0.6513079259400713  0.4101961623276466  0.4063322315642437
  0.0550232686392931  0.8385927102917063  0.5297039364803926
  0.0261395479417204  0.7036384435275983  0.3209739299254628
  0.0268267230291978  0.9113603135784700  0.6093637460483423
  0.0979740554891727  0.5578421479992376  0.5197575032981426
 -0.0057433472391034  0.7197969547042605  0.7418352412838183
  0.0268187360781827  0.5886172977494214  0.1093919302688350
  0.3930722247213166  0.6896285038887044  0.3704504779084444
  0.7118691753243545  0.7381363224437443  0.0176269488904492
  0.0057432649597656  0.2197829346702469  0.7418357781610615
  0.8541509045347372  0.8425883015495583  0.4777640061806843
  0.0260574098604530  0.7963629271814087  0.8209477148095006
  0.2232011982370810  0.6449570997576235  0.3098062568463651
  0.4799367926897180  0.3334936164981678  0.2780112864199580
  0.9731993183103638  0.0886171106575954  0.1093828505445027
  0.2166209586265591  0.5089249094672829  0.8601126153149146
  0.5688142065425214  0.7736481802131505  0.8116061835953620
  0.1490238222020415  0.5473992597528607  0.7679971517568616
  0.9738615522939360  0.2036388260468489  0.3209758077391928
  0.0550113593205418  0.6614079671491948  0.0296874224116484
  0.2880961358818664  0.2618637193554481  0.5176355538851050
 -0.0056887261580829  0.7802857852709683  0.2418153311684800
  0.2232268430605698  0.8550431701982371  0.8097732930950216
  0.7833575545925554  0.4911130080665396  0.3601074603879471
  0.4626128070112349  0.9529641828630288  0.0730017089803354
  0.3487016496658150  0.9101991649055047  0.4063434824373862
  0.0979311459877255  0.9421586846156091  0.0197846191185156
  0.4625897201536688  0.5470170521456348  0.5729877834938296
  0.7833840438605015  1.0089318972263590  0.8601079111763196
  0.0056815724437045  0.2802733613609730  0.2418176802650842
  0.3930795153774309  0.8103997485463985  0.8704081995005095
  0.5099896069990170  0.5333248850701077  0.1492805021246822
  0.5200709958530887  0.8334909802819067  0.2780082685914737
  0.0781932210435122  0.4811702206934615  0.0773864526582241
  0.1491085595290089  0.9526622007107819  0.2680238630724663
  0.3486487776533966  0.5897512762706506  0.9063546416647750
  0.2622584096688287  0.8968255606426936  0.0828022711446361
  0.5521931309804355  0.9073167251247891  0.3564503442035488
  0.4478588150495755  0.0926926254556499  0.8564649387655844
  0.5373898348219209  0.4529628846286655  0.0730007257039721
  0.0449197378152040  0.3866769168867602  0.2769859440663758
  0.9218015797504132  0.5188286050315444  0.5773627634417970
  0.6476639625821272  0.7066012976627736  0.1123482131353681
  0.5521685925948945  0.5926837561087961  0.8564633486990731
  0.6069212899849769  0.1896344935703597  0.3704445049815142
  0.4593289928360922  0.8633150550508358  0.6095535065488132
  0.9020709090073527  0.4421547821676589  0.0197768007092363
  0.4799082064738167  0.1665252892667974  0.7779448296905815
  0.6513274847901647  0.0897497312589812  0.9063662212366117
  0.2881277193118560  0.2381386867707261  0.0176250994395847
  0.4311471929798107  0.2263405695914396  0.3116417902706522
  0.5688477052303901  0.7263402867564983  0.3116419162651686
  0.7377167566759844  0.3968248772673897  0.0828073264745630
  0.7767941909393830  0.3550475941402280  0.8097672970533782
  0.2166451383986271 -0.0088984072454692  0.3601053419366179
  0.4592638606129945  0.6366660663400930  0.1095185053785194
  0.1458357955850937  0.3425857926666802  0.4777525667033432
  0.4900098972635302  0.0333133072184909  0.1492820176594895
  0.1458889029913134  0.1574551646013318  0.9777762164452125
  0.9550696838454549  0.8866723962892681  0.2769865626603523
  0.9217872382807182  0.9811763854202201  0.0773894835689949
  0.3523444189364746  0.2065911537089529  0.1123368264310109
  0.4477978482460983  0.4073296192788877  0.3564501014474322
  0.8509675415626196  0.0473900370914573  0.7679878737131628
  0.5374100665768482  0.0470174072017281  0.5729873615571711
  0.9020390105945614  0.0578366366539615  0.5197610814179674
  0.9739401575895671  0.2963656532330506  0.8209470480788799
  0.4900048255736121  0.4666035737759263  0.6493050414218685
  0.0449685823616566  0.1133216039540702  0.7770072403487962
  0.7767879007771735  0.1449623767748160  0.3098102314276084
  0.9449842075837824  0.3386071669308845  0.5297042776863717
  0.2623127347615101  0.6031557548747318  0.5827839691771498
  0.0782009005963461  0.0188245977598699  0.5773625334978574
  0.9449644655092573  0.1614201325915930  0.0296890197000326
  0.5406857116843453  0.3633150267449507  0.6095511478377199
