Li2O antifluorite (Fm-3m, space group 225)
   1.00000000
     4.6110   0.0000   0.0000
     0.0000   4.6110   0.0000
     0.0000   0.0000   4.6110
Li   O
4    2
Direct
  0.250000   0.250000   0.250000
  0.750000   0.750000   0.250000
  0.750000   0.250000   0.750000
  0.250000   0.750000   0.750000
  0.000000   0.000000   0.000000
  0.500000   0.500000   0.500000
