O18
1.0
   3.0389403105853789   -5.2635990191030206    0.0000000000000000
   3.0389403105853789    5.2635990191030206    0.0000000000000000
   0.0000000000000000    0.0000000000000000   11.8656400167075748
O
18
direct
   0.1419660700000000    0.0078987900000000    0.0866229999999990 O0+
   0.8659327200000000    0.8580339300000001    0.0866229999999990 O0+
   0.9921012100000001    0.1340672799999990    0.0866229999999990 O0+
   0.1992660533333330    0.6745654566666660    0.2532896666666660 O0+
   0.3254345433333330    0.5247005966666660    0.2532896666666660 O0+
   0.4752994033333330    0.8007339466666661    0.2532896666666660 O0+
   0.8086327366666660    0.3412321233333330    0.4199563333333330 O0+
   0.5325993866666661    0.1913672633333330    0.4199563333333330 O0+
   0.6587678766666660    0.4674006133333330    0.4199563333333330 O0+
   0.8659327200000000    0.0078987900000000    0.5866229999999990 O0+
   0.9921012100000001    0.8580339300000001    0.5866229999999990 O0+
   0.1419660700000000    0.1340672800000000    0.5866229999999990 O0+
   0.4752994033333330    0.6745654566666660    0.7532896666666661 O0+
   0.1992660533333330    0.5247005966666660    0.7532896666666661 O0+
   0.3254345433333330    0.8007339466666661    0.7532896666666661 O0+
   0.5325993866666661    0.3412321233333330    0.9199563333333330 O0+
   0.6587678766666660    0.1913672633333330    0.9199563333333330 O0+
   0.8086327366666660    0.4674006133333330    0.9199563333333330 O0+
