Li10Ge(PS6)2 (mp-696128)
1.0
   8.7876460000000005    0.0000000000000000    0.0000000000000000
   0.0000000000000000    8.7876460000000005    0.0000000000000000
   0.0000000000000000    0.0000000000000000   12.6575460000000000
Li Ge P S
20 2 4 24
direct
   0.2286979999999990    0.2729500000000000    0.2945629999999990 Li
   0.7713019999999990    0.7270500000000001    0.2945629999999990 Li
   0.2729500000000000    0.7713019999999990    0.7945630000000000 Li
   0.7270500000000001    0.2286979999999990    0.7945630000000000 Li
   0.2286979999999990    0.7270500000000001    0.2945629999999990 Li
   0.7713019999999990    0.2729500000000000    0.2945629999999990 Li
   0.2729500000000000    0.2286979999999990    0.7945630000000000 Li
   0.7270500000000001    0.7713019999999990    0.7945630000000000 Li
   0.0000000000000000    0.0000000000000000    0.9397300000000001 Li
   0.0000000000000000    0.0000000000000000    0.4397300000000000 Li
   0.5000000000000000    0.5000000000000000    0.5480200000000001 Li
   0.5000000000000000    0.5000000000000000    0.0480200000000000 Li
   0.2563180000000000    0.7247720000000000    0.0366630000000000 Li
   0.7436820000000000    0.2752280000000000    0.0366630000000000 Li
   0.2752280000000000    0.2563180000000000    0.5366630000000000 Li
   0.7247720000000000    0.7436820000000000    0.5366630000000000 Li
   0.2752280000000000    0.7436820000000000    0.5366630000000000 Li
   0.7247720000000000    0.2563180000000000    0.5366630000000000 Li
   0.2563180000000000    0.2752280000000000    0.0366630000000000 Li
   0.7436820000000000    0.7247720000000000    0.0366630000000000 Li
   0.5000000000000000    0.5000000000000000    0.8010280000000000 Ge
   0.5000000000000000    0.5000000000000000    0.3010279999999990 Ge
   0.0000000000000000    0.0000000000000000    0.6860510000000000 P
   0.0000000000000000    0.0000000000000000    0.1860510000000000 P
   0.0000000000000000    0.5000000000000000    0.5040730000000000 P
   0.5000000000000000    0.0000000000000000    0.0040730000000000 P
   0.0000000000000000    0.6944310000000000    0.4120709999999990 S
   0.0000000000000000    0.3055690000000000    0.4120709999999990 S
   0.3055690000000000    0.0000000000000000    0.9120710000000000 S
   0.6944310000000000    0.0000000000000000    0.9120710000000000 S
   0.5000000000000000    0.1898480000000000    0.0970569999999990 S
   0.5000000000000000    0.8101520000000000    0.0970569999999990 S
   0.1898480000000000    0.5000000000000000    0.5970569999999999 S
   0.8101520000000000    0.5000000000000000    0.5970569999999999 S
   0.0000000000000000    0.8047080000000000    0.0940960000000000 S
   0.0000000000000000    0.1952920000000000    0.0940960000000000 S
   0.1952920000000000    0.0000000000000000    0.5940960000000000 S
   0.8047080000000000    0.0000000000000000    0.5940960000000000 S
   0.5000000000000000    0.2900020000000000    0.4032420000000000 S
   0.5000000000000000    0.7099980000000000    0.4032420000000000 S
   0.2900020000000000    0.5000000000000000    0.9032420000000000 S
   0.7099980000000000    0.5000000000000000    0.9032420000000000 S
   0.0000000000000000    0.1919500000000000    0.7770690000000000 S
   0.0000000000000000    0.8080500000000000    0.7770690000000000 S
   0.8080500000000000    0.0000000000000000    0.2770690000000000 S
   0.1919500000000000    0.0000000000000000    0.2770690000000000 S
   0.5000000000000000    0.7073780000000000    0.6981660000000000 S
   0.5000000000000000    0.2926220000000000    0.6981660000000000 S
   0.7073780000000000    0.5000000000000000    0.1981659999999990 S
   0.2926220000000000    0.5000000000000000    0.1981659999999990 S
