S 
 1.0000000000000000
     8.2025503541660001    0.5178577859279109    1.9864749525530654
     1.7480688181272031    8.0318969316981779    1.9863995645370560
    -0.2052146316774742   -0.1763927028422011    9.6459675938575842
 S  
  20
Direct
  0.9100082285094856  0.2766095720762951  0.8447388647804456
  0.4610729481909967  0.8953933678430637  0.2384164974216351
  0.9937191141988270  0.1136006542559935  0.6963112294871361
 -0.0187687736795872  0.6552138204781640  0.7730919747552083
  0.2340226429998766  0.1042108263797648  0.5926767455795708
  0.8447914461058426  0.5187514236982089  0.7269138846752810
  0.3958058137077752  0.2659724972683276  0.9073194429131218
  0.5389274654893366  0.1046059330747843  0.7615828091080937
  1.0187682434448118  0.3447859284453266  0.2269082461644139
  0.2233822371983899  0.5900095371542901  0.6552567805979822
  0.0062817665481479  0.8863993184217988  0.3036877929107263
  0.1552085349308877  0.4812485875221171  0.2730861517336903
  0.7766182918480771  0.4099904178769599  0.3447428152350017
  0.6046010661038631  0.0389376680956514  0.2615811573966942
  0.7659754475846806  0.8957898424157257  0.4073223446373083
  0.0899917685664319  0.7233909653854788  0.1552613046004219
  0.3863890988572251  0.5062760350701652  0.8037006688642662
  0.6136106826428196  0.4937239148815489  0.1962992735783459
  0.3954001497602444  0.9610615375665917  0.7384198314487933
  0.6041938269925035  0.7340281520893981  0.0926811841121286
