S (mp-557376)
1.0
   8.0727464900000001    0.1023994400000000    1.8738479100000001
   1.3177898100000001    7.9651204199999999    1.8738479100000001
  -0.0734969600000000   -0.0631416600000000    8.5759595900000001
S
20
direct
   0.9183419200000000    0.2508723000000000    0.8582248200000000 S
   0.5987947500000000    0.4962966300000000    0.1872824800000000 S
   0.4012052500000000    0.5037033700000000    0.8127175200000000 S
   0.0816580800000000    0.7491277000000000    0.1417751800000000 S
   0.7632048200000000    0.8883582500000000    0.4304697800000000 S
   0.6114003500000000    0.0359739100000000    0.2702783900000000 S
   0.7508722999999990    0.4183419200000000    0.3582248200000000 S
   0.1371007500000000    0.5086147500000000    0.2726328700000000 S
   0.0037033700000000    0.9012052500000001    0.3127175200000000 S
   0.2491276999999990    0.5816580800000000    0.6417751800000000 S
   0.9913852500000000    0.3628992500000000    0.2273671300000000 S
   0.5359739100000001    0.1114003500000000    0.7702783900000000 S
   0.3883582500000000    0.2632048200000000    0.9304707800000001 S
   0.8628992500000000    0.4913852500000000    0.7273671300000000 S
   0.2367951800000000    0.1116417500000000    0.5695292200000001 S
   0.0086147500000000    0.6371007500000000    0.7726328700000000 S
   0.9962966300000000    0.0987947500000000    0.6872824800000000 S
   0.4640260900000000    0.8885996500000000    0.2297216100000000 S
   0.3885996500000000    0.9640260900000001    0.7297216100000000 S
   0.6116417500000000    0.7367951800000000    0.0695292200000000 S
