Ba12 Ti12 O36
1.0
   5.7768031799999999    0.0000000000000000    0.0000000000000004
  -0.0000000000000006    9.9504472400000008    0.0000000000000006
   0.0000000000000000    0.0000000000000000   14.0190321600000001
Ba Ti O
12 12 36
direct
   0.5129639800000000    0.1659666699999990    0.4037135200000000 Ba2+
   0.5129639800000000    0.8340333300000000    0.5962864800000001 Ba2+
   0.4870360200000000    0.8340333300000000    0.9037135199999990 Ba2+
   0.5000000000000000    0.4992447400000000    0.2500000000000000 Ba2+
   0.5000000000000000    0.5007552600000000    0.7500000000000000 Ba2+
   0.4870360200000000    0.1659666699999990    0.0962864800000000 Ba2+
   0.0129639799999990    0.6659666700000000    0.4037135200000000 Ba2+
   0.0129639799999990    0.3340333300000000    0.5962864800000001 Ba2+
   0.9870360200000000    0.3340333300000000    0.9037135199999990 Ba2+
   0.0000000000000000    0.9992447400000001    0.2500000000000000 Ba2+
   0.0000000000000000    0.0007552600000000    0.7500000000000000 Ba2+
   0.9870360200000000    0.6659666700000000    0.0962864800000000 Ba2+
   0.5208822300000000    0.1681779900000000    0.6538695200000000 Ti4+
   0.5208822300000000    0.8318220100000000    0.3461304800000000 Ti4+
   0.9758196700000000    0.0000000000000000    0.0000000000000000 Ti4+
   0.4791177700000000    0.1681779900000000    0.8461304800000000 Ti4+
   0.0241803299999990    0.0000000000000000    0.5000000000000000 Ti4+
   0.4791177700000000    0.8318220100000000    0.1538695199999990 Ti4+
   0.0208822300000000    0.6681779900000000    0.6538695200000000 Ti4+
   0.0208822300000000    0.3318220100000000    0.3461304800000000 Ti4+
   0.4758196699999990    0.5000000000000000    0.0000000000000000 Ti4+
   0.9791177700000000    0.6681779900000000    0.8461304800000000 Ti4+
   0.5241803300000000    0.5000000000000000    0.5000000000000000 Ti4+
   0.9791177700000000    0.3318220100000000    0.1538695199999990 Ti4+
   0.4989141550000000    0.3352072550000000    0.9198616400000000 O2-
   0.7522286700000000    0.9180154400000000    0.0805855800000000 O2-
   0.2762289300000000    0.7563989100000000    0.2473228999999990 O2-
   0.7515722750000000    0.9159874550000000    0.4192105500000000 O2-
   0.4989141550000000    0.6647927450000001    0.0801383599999990 O2-
   0.2477713299999990    0.0819845599999990    0.5805855800000000 O2-
   0.7515722750000000    0.0840125450000000    0.5807894499999990 O2-
   0.7237710700000000    0.7563989100000000    0.2526771000000010 O2-
   0.5000000000000000    0.0205387700000000    0.7500000000000000 O2-
   0.5010858450000001    0.3352072550000000    0.5801383600000000 O2-
   0.2484277250000000    0.9159874550000000    0.0807894499999990 O2-
   0.5000000000000000    0.9794612300000001    0.2500000000000000 O2-
   0.7522286700000000    0.0819845599999990    0.9194144200000001 O2-
   0.5010858450000001    0.6647927450000001    0.4198616400000000 O2-
   0.2477713299999990    0.9180154400000000    0.4194144200000000 O2-
   0.7237710700000000    0.2436010899999990    0.7473228999999990 O2-
   0.2762289300000000    0.2436010899999990    0.7526771000000011 O2-
   0.2484277250000000    0.0840125450000000    0.9192105500000001 O2-
   0.9989141550000000    0.8352072550000000    0.9198616400000000 O2-
   0.2522286700000000    0.4180154400000000    0.0805855800000000 O2-
   0.7762289300000000    0.2563989100000000    0.2473228999999990 O2-
   0.2515722750000000    0.4159874550000000    0.4192105500000000 O2-
   0.9989141550000000    0.1647927449999990    0.0801383599999990 O2-
   0.7477713300000001    0.5819845600000000    0.5805855800000000 O2-
   0.2515722750000000    0.5840125450000000    0.5807894499999990 O2-
   0.2237710699999990    0.2563989100000000    0.2526771000000010 O2-
   0.0000000000000000    0.5205387700000000    0.7500000000000000 O2-
   0.0010858449999990    0.8352072550000000    0.5801383600000000 O2-
   0.7484277250000001    0.4159874550000000    0.0807894499999990 O2-
   0.0000000000000000    0.4794612300000000    0.2500000000000000 O2-
   0.2522286700000000    0.5819845600000000    0.9194144200000001 O2-
   0.0010858449999990    0.1647927449999990    0.4198616400000000 O2-
   0.7477713300000001    0.4180154400000000    0.4194144200000000 O2-
   0.2237710699999990    0.7436010900000000    0.7473228999999990 O2-
   0.7762289300000000    0.7436010900000000    0.7526771000000011 O2-
   0.7484277250000001    0.5840125450000000    0.9192105500000001 O2-
