S 
 1.0000000000000000
     8.2185048183470446   -0.0000388132213555   -0.0001640104557306
    -0.0000582923308445   13.2407299318977341   -0.0000216457344569
    -0.0004595778614839   -0.0000403857506082   22.6483322447633739
 S  
  72
Direct
  0.2695307364430303  0.9475465907696221  0.0154080223657977
  0.5490509885574557  0.9949157431656120  0.3143303526241408
  0.1193270862695529  0.2431505978520216  0.5915039806862233
  0.8806772060990217  0.2568464697502749  0.0915116078643208
  0.2086046411231511  0.9495059526245867  0.8156341636886860
  0.6316045805813308  0.4890292988791371  0.5904205603809108
  0.9509356418521600  0.4949143245428099  0.6856711868571171
  0.7766970442394152  0.8131727748742245  0.1800197924903401
  0.0490560788088564  0.0050818966572638  0.1856653956757568
  0.1316104599116974  0.5109750402026744  0.9095813665042115
  0.1378010554850903  0.5597009860769374  0.6374855448931386
  0.1807569253123436  0.1290503440931951  0.9220529033363406
  0.1881316379389420  0.8639762387093743  0.5734962539869073
  0.0655224721696443  0.7415281261601744  0.3123534413337464
  0.2345426080671003  0.4369415111047790  0.8386143464394045
  0.3118698799710659  0.3639714952291621  0.4265072118219456
  0.8683914325792768  0.9890278605379831  0.4095857567773611
  0.9344992677169237  0.7584747351988369  0.8123621765641259
  0.0878292842425536  0.8085062234984408  0.6503588789943509
  0.8621988594183608  0.9403026400449854  0.1374845863689296
  0.4121792394338193  0.3085104635333175  0.3496378889658891
  0.5761151677170712  0.9284510902122680  0.6538382366235745
  0.6377959828170411  0.4403033785119770  0.8625135610730915
  0.7654356548926561  0.0630509907448035  0.3386111969299642
  0.9238769308594337  0.4284517461234283  0.3461674912005360
  0.4150473546533450  0.5462750175719606  0.0091086466274908
  0.4344766958741522  0.2415246351157760  0.6876455917087816
  0.2235272881179726  0.1797833006359280  0.5174694976025610
  0.2766820453210587  0.1868274458505663  0.3199773666960334
  0.7304869847134003  0.5524507478786780  0.5154135657852797
  0.8192305976158573  0.3709469719198672  0.4220583750251659
  0.9121625982400533  0.6914837341319356  0.1503592637045479
  0.2233099599125830  0.6868342877552853  0.6800224509098132
  0.2764819274761876  0.6797795891457257  0.4825288133935913
  0.2304726720506826  0.4475468132985590  0.9845893143953397
  0.3770553696993154  0.3235245807345856  0.1405005052868820
  0.7345649111322295  0.5630478510080040  0.6613895000637969
  0.9150485288419364  0.4537228132195663  0.4908958996124734
  0.7695141660553146  0.0524467950437851  0.4845874133229867
  0.7913890565234930  0.5504906876663579  0.3156307031696390
  0.8770481896690483  0.6764698575296463  0.3594966298889651
  0.7086179227412304  0.0504940932525075  0.6843714438965925
  0.7764969565334716  0.3202251085528212  0.0174675934996827
  0.2795878295231126  0.6705793490529516  0.3363967606984217
  0.3806738652997643  0.7431501732950703  0.4084868065512728
  0.5913645867068487  0.2215584136232608  0.9939597042573683
  0.5849529622789417  0.9537278500320922  0.5091099711993022
  0.4086443136406089  0.2784395838685293  0.4939592691352185
  0.7234976172163184  0.8202234283810363  0.9825332659410556
  0.1229509061423781  0.8235250104805335  0.8594988011309922
  0.9086362415423928  0.7215530108601291  0.0060409483703015
  0.3621960173255094  0.0597018402533575  0.3625119499591257
  0.5878224896953000  0.1914842873069194  0.8496410588928680
  0.4238811536854969  0.5715567909119479  0.1538346239972416
  0.5655066195644372  0.2584774590035919  0.1876403492333631
  0.3192431629145651  0.6290493971368384  0.0779395509610282
  0.3683957373239666  0.0109745157878667  0.0904201694026402
  0.6807720450891681  0.8709510768583985  0.5779388235422245
  0.0913518558066285  0.7784440817503085  0.5060362551782824
  0.8118727281516698  0.6360305047377953  0.0734992490620089
  0.0849547906302525  0.0462785551788496  0.9908918329783540
  0.6881234195030778  0.1360320484367342  0.9265077511401755
  0.2913907430818401  0.4495076508736591  0.1843656735257062
  0.7204046862708300  0.8294205059024554  0.8363981346393004
  0.6229538286180843  0.1764701667036792  0.6405065009290934
  0.7233021328912688  0.3131676175520692  0.8199788916080681
  0.0761290957612338  0.0715579393438709  0.8461662577497815
  0.4509487433936302  0.5050820560898956  0.8143301657893887
  0.7795963327652499  0.3294301446129551  0.1636023871460490
  0.2654525594710801  0.9369489990877962  0.1613852901095473
  0.2204185490816442  0.1705738545912300  0.6636051074612166
  0.6193208989461925  0.7568428388766227  0.9084849703742610
