O6
1.0
   1.6749479048918512   -2.9010948713037292    0.0000000000000000
   1.6749479048918512    2.9010948713037292    0.0000000000000000
   0.0000000000000000    0.0000000000000000   11.1959985644718980
O
6
direct
   0.6666666666666661    0.3333333333333330    0.2787186133333330 O0+
   0.0000000000000000    0.0000000000000000    0.0546147200000000 O0+
   0.3333333333333330    0.6666666666666661    0.6120519466666661 O0+
   0.6666666666666661    0.3333333333333330    0.3879480533333330 O0+
   0.0000000000000000    0.0000000000000000    0.9453852800000000 O0+
   0.3333333333333330    0.6666666666666661    0.7212813866666661 O0+
