O4
1.0
   2.3516382876594641    0.0000000000000000    0.0000000000000001
  -0.0000000000000001    2.3516382876594641    0.0000000000000001
   0.0000000000000000    0.0000000000000000    7.6358010269140673
O
4
direct
   0.5000000000000000    0.5000000000000000    0.4205301799999990 O0+
   0.0000000000000000    0.0000000000000000    0.0794698200000000 O0+
   0.0000000000000000    0.0000000000000000    0.9205301799999991 O0+
   0.5000000000000000    0.5000000000000000    0.5794698200000000 O0+
