Li (mp-1103107)
1.0
   8.0466169999999995    2.7876780000000001    0.0000000000000000
  -8.0466169999999995    2.7876780000000001    0.0000000000000000
   0.0000000000000000    0.0000000000000000    5.4068589999999999
Li
12
direct
   0.7559530000000000    0.7559530000000000    0.5978089999999990 Li
   0.2440470000000000    0.2440470000000000    0.4021909999999990 Li
   0.7440470000000000    0.7440470000000000    0.0978090000000000 Li
   0.2559530000000000    0.2559530000000000    0.9021910000000000 Li
   0.7819590000000000    0.4548210000000000    0.7538710000000000 Li
   0.5451790000000000    0.2180409999999990    0.2461290000000000 Li
   0.0451790000000000    0.7180409999999990    0.2538710000000000 Li
   0.2819589999999990    0.9548209999999990    0.7461289999999990 Li
   0.2180409999999990    0.5451790000000000    0.2461290000000000 Li
   0.4548210000000000    0.7819590000000000    0.7538710000000000 Li
   0.9548209999999990    0.2819589999999990    0.7461289999999990 Li
   0.7180409999999990    0.0451790000000000    0.2538710000000000 Li
