S 
 1.0000000000000000
    -0.0000739354149862   10.0463987818602885   11.7035852251737396
     5.4817157524058935    0.0052668178303972   11.7004945340690298
     5.4976627559830957   10.0543745790194077   -0.0046619807639961
 S  
  32
Direct
  0.9233731611964437  0.0108284728805026  0.7248310526738954
  0.4489058268395927  0.3629147294561856  0.7394622769344326
  0.9499504922895031  0.7376651386523988  0.3587140742557581
  0.2638054188736033  0.0477376784620710  0.5466622736828345
  0.6427271231348272  0.5438906848844824  0.0510246231072141
  0.5527371722074446  0.6336452420017027  0.2627776060587717
  0.0511912401198169  0.2601716519314086  0.6393009433797907
  0.7455951807338582  0.0529536783286728  0.2852082574139833
  0.4124518688015781  0.2909630161894964  0.0537924837289134
  0.2864484602680256  0.4135892793787788  0.7461445989974212
  0.0506484287417313  0.7458520367413285  0.4154569784978189
  0.2578233000849091  0.9438134481590728  0.7096355639103185
  0.5859126437436888  0.7099515990316745  0.9506234248645407
  0.7172071109242830  0.5807046694733484  0.2537669722698750
  0.9478787917769835  0.2531481396427106  0.5859444167596689
  0.7624738189817278  0.1914094431428096  0.3089494343775025
  0.2372788510992147  0.3089107134464865  0.1905690884407459
  0.3111622596477793  0.2339703378253092  0.7640979638747174
  0.1878412876077168  0.7652687021412817  0.2395519943464297
  0.2392945637170566  0.8063257881582552  0.6877513058611010
  0.7622577034608163  0.6902302439291553  0.8128549655517426
  0.6932905324037595  0.7597872934468539  0.2368068067162177
  0.8111953493841016  0.2337507643773567  0.7631029564895601
  0.9847125798895248  0.0804775344568690  0.1635900753470685
  0.2770098960312458  0.1586560036513467  0.0782750187536261
  0.1639632385769565  0.2699664224161936  0.9862844197733369
  0.0751523883145878  0.9884066367651337  0.2781321339485023
  0.0170159360680660  0.9171271135830803  0.8363227025106618
  0.7246143128679094  0.8386560828412919  0.9248143759792868
  0.8394722522622817  0.7253672601442034  0.0147987060992696
  0.3556393787832975  0.4557322602413137  0.9519772400909002
  0.7375434311536624  0.9501939342096041  0.4492022653185348
