S (mp-558014)
1.0
   4.8107422099999999    0.0000000000000000    0.0000000000000000
  -0.0000000000000000    9.2690779400000007    0.0000000000000000
   0.0000000000000000    0.0000000000000000   14.9088686900000003
S
24
direct
   0.0076254700000000    0.3121584700000000    0.8880552400000000 S
   0.5000000000000000    0.5000000000000000    0.2758836700000000 S
   0.2259566800000000    0.7313893400000000   -0.0000000000000000 S
   0.9923745300000000    0.6878415300000000    0.1119447600000000 S
   0.7667078600000000    0.8693265500000000    0.8578269700000000 S
   0.4923745300000000    0.8121584700000000    0.6119447600000000 S
   0.2667078600000000    0.6306734500000000    0.6421730300000000 S
   0.5000000000000000    0.5000000000000000    0.7241163300000000 S
   0.5076254700000000    0.1878415300000000    0.3880552400000000 S
   0.4923745300000000    0.8121584700000000    0.3880552400000000 S
   0.2667078600000000    0.6306734500000000    0.3578269700000000 S
   0.7332921400000000    0.3693265500000000    0.3578269700000000 S
   0.2740433200000000    0.2313893400000000    0.5000000000000000 S
  -0.0000000000000000    0.0000000000000000    0.2241163300000000 S
  -0.0000000000000000    0.0000000000000000    0.7758836700000000 S
   0.2332921400000000    0.1306734500000000    0.1421730300000000 S
   0.5076254700000000    0.1878415300000000    0.6119447600000000 S
   0.9923745300000000    0.6878415300000000    0.8880552400000000 S
   0.2332921400000000    0.1306734500000000    0.8578269700000000 S
   0.7332921400000000    0.3693265500000000    0.6421730300000000 S
   0.7259566800000000    0.7686106600000000    0.5000000000000000 S
   0.7667078600000000    0.8693265500000000    0.1421730300000000 S
   0.0076254700000000    0.3121584700000000    0.1119447600000000 S
   0.7740433200000000    0.2686106600000000   -0.0000000000000000 S
