Ag FCC (Fm-3m, space group 225)
   1.00000000
     4.0862   0.0000   0.0000
     0.0000   4.0862   0.0000
     0.0000   0.0000   4.0862
Ag
4
Direct
  0.000000   0.000000   0.000000
  0.500000   0.500000   0.000000
  0.500000   0.000000   0.500000
  0.000000   0.500000   0.500000
