Ag FCC (Fm-3m, #225)
1.0
   4.0862   0.0000   0.0000
   0.0000   4.0862   0.0000
   0.0000   0.0000   4.0862
Ag
4
Direct
  0.000000   0.000000   0.000000
  0.500000   0.500000   0.000000
  0.500000   0.000000   0.500000
  0.000000   0.500000   0.500000
