S 
 1.0000000000000000
    -0.0000000000000008    0.0000000000000020    2.8998360669427097
     5.9002610752827520   -0.0000030238811998   -0.0000000000000015
     0.0000030238810667    5.9002610752827662    0.0000000000000038
 S  
   4
Direct
  0.7500000000000014  0.3860096128544282  0.8860256830561470
  0.7500000000000008  0.6139903871455719  0.1139743169438523
  0.2500000000000001  0.8860256830561459  0.6139903871455737
  0.2500000000000004  0.1139743169438537  0.3860096128544269
