Ti100
1.0
  11.8424355247857562    0.0000000000000000    0.0000000000000000
  -0.1832375699559690   11.9780577834337656    0.0000000000000000
  -0.1271545138357090   -0.1635570447294490   12.3652351956256030
Ti
100
direct
   0.0313076199999990    0.8342638900000000    0.9185574600000000 Ti0+
   0.3624640099999990    0.2360965200000000    0.8627990000000000 Ti0+
   0.5829256799999990    0.4293230300000000    0.5619889500000000 Ti0+
   0.8749157999999990    0.3884252900000000    0.2911805000000000 Ti0+
   0.4548985999999990    0.5150559700000000    0.3687209700000000 Ti0+
   0.5240334500000000    0.2540405000000000    0.7144881800000000 Ti0+
   0.8697339399999990    0.8490281800000000    0.7534347200000000 Ti0+
   0.8553413499999991    0.7350972000000000    0.5557555200000001 Ti0+
   0.7343745700000001    0.8482286500000000    0.3734030600000000 Ti0+
   0.9913618699999991    0.2282314400000000    0.9192175300000001 Ti0+
   0.8731462600000001    0.0669097300000000    0.8364109800000000 Ti0+
   0.1594393399999990    0.3083180200000000    0.5330828000000000 Ti0+
   0.0897520699999990    0.5215518700000000    0.8520249200000000 Ti0+
   0.3621135399999990    0.4057797800000000    0.5663634300000000 Ti0+
   0.8863634199999990    0.4263645800000000    0.9574222500000000 Ti0+
   0.2708940000000000    0.4494198000000000    0.1873704700000000 Ti0+
   0.9377825599999990    0.2536097100000000    0.1298991800000000 Ti0+
   0.5802150400000000    0.0205150999999990    0.3683305700000000 Ti0+
   0.4306388099999990    0.8398589100000000    0.4476406100000000 Ti0+
   0.0648536300000000    0.4470872200000000    0.0960054300000000 Ti0+
   0.2890397499999990    0.2653141600000000    0.3552346500000000 Ti0+
   0.2693178599999990    0.8980570400000000    0.6276186500000001 Ti0+
   0.3695890399999990    0.7578655200000001    0.0405960800000000 Ti0+
   0.8419296799999990    0.9901420300000000    0.2035565500000000 Ti0+
   0.0042699800000000    0.0352095000000000    0.0457416100000000 Ti0+
   0.2842260499999990    0.6460973200000000    0.7561329700000000 Ti0+
   0.3833807899999990    0.2711023300000000    0.0879936800000000 Ti0+
   0.5173082900000000    0.3806862500000000    0.9520028900000000 Ti0+
   0.5296328400000000    0.7260720500000000    0.2870208900000000 Ti0+
   0.6697135200000001    0.6424568700000001    0.6747934100000000 Ti0+
   0.8174353199999991    0.9679617500000001    0.5785279000000000 Ti0+
   0.1169008299999990    0.5119429600000001    0.6382791700000000 Ti0+
   0.3323550999999990    0.0432130000000000    0.4512742400000000 Ti0+
   0.3919142399999990    0.1122124200000000    0.2500917900000000 Ti0+
   0.6362926500000000    0.6331618700000000    0.4646860500000000 Ti0+
   0.9370209099999991    0.9918180900000000    0.3951737300000000 Ti0+
   0.5137138299999990    0.2213979900000000    0.4724551600000000 Ti0+
   0.4943559999999990    0.4883963999999991    0.7481183100000001 Ti0+
   0.4886602299999990    0.6524655600000000    0.8860403900000000 Ti0+
   0.6871269900000000    0.5385848400000001    0.9873294700000000 Ti0+
   0.3257585499999990    0.1801489400000000    0.6252977000000000 Ti0+
   0.8697326799999990    0.5516438200000000    0.1446694400000000 Ti0+
   0.1729765399999990    0.2122483300000000    0.1346343400000000 Ti0+
   0.2786205999999990    0.4165531200000000    0.7658826200000001 Ti0+
   0.5370259900000001    0.9019921700000000    0.9374117600000000 Ti0+
   0.3881469799999990    0.0279724200000000    0.7885727100000001 Ti0+
   0.1428383599999990    0.6587943800000000    0.0242728800000000 Ti0+
   0.5683315399999991    0.1274517200000000    0.9027633200000000 Ti0+
   0.6197248500000000    0.9260965000000000    0.1636931200000000 Ti0+
   0.4302539599999990    0.6304571999999991    0.5673753600000000 Ti0+
   0.0809256799999990    0.7443916800000000    0.7101558100000001 Ti0+
   0.2007703199999990    0.8900139900000000    0.1000456300000000 Ti0+
   0.6933855099999990    0.3786604400000000    0.3967077800000000 Ti0+
   0.7894447499999990    0.9006519800000000    0.9868129999999991 Ti0+
   0.3702212299999990    0.0334659900000000    0.0272164600000000 Ti0+
   0.1343753599999990    0.2325804000000000    0.7387509500000000 Ti0+
   0.9684830799999991    0.1910234600000000    0.3421405500000000 Ti0+
   0.0940338199999990    0.3684283700000000    0.3049446400000000 Ti0+
   0.3920662199999990    0.8942901000000000    0.2236649300000000 Ti0+
   0.7324791299999991    0.2764595200000000    0.8790151700000001 Ti0+
   0.8931774199999991    0.6635685700000000    0.9630055200000001 Ti0+
   0.4682801199999990    0.8098077400000000    0.7234340800000000 Ti0+
   0.0160495099999990    0.5751326800000001    0.4754736300000000 Ti0+
   0.2673589899999990    0.8581682800000000    0.8638377700000001 Ti0+
   0.7224670599999991    0.4567118900000000    0.7764751700000000 Ti0+
   0.1434186899999990    0.0550005700000000    0.2663896300000000 Ti0+
   0.8302794799999991    0.6039439000000000    0.3626455700000000 Ti0+
   0.6725663900000001    0.9876110100000001    0.7588272300000000 Ti0+
   0.6916366099999991    0.3404591500000000    0.1085761700000000 Ti0+
   0.7249970299999990    0.1866567900000000    0.2636778600000000 Ti0+
   0.0494167899999990    0.8812532700000000    0.5478623100000000 Ti0+
   0.6328143999999990    0.8411885500000000    0.5736347600000000 Ti0+
   0.2321981000000000    0.5035706100000000    0.4139020900000000 Ti0+
   0.5953235899999990    0.7219846600000001    0.0699589200000000 Ti0+
   0.5294945200000000    0.0396322900000000    0.5910708600000000 Ti0+
   0.3172312999999991    0.5191024200000001    0.9675498500000000 Ti0+
   0.8114193000000000    0.4980508999999990    0.5737757100000000 Ti0+
   0.1879641999999990    0.8749393400000001    0.3574962900000000 Ti0+
   0.9406410299999991    0.1461413800000000    0.6356425000000000 Ti0+
   0.6878166099999991    0.7513126700000000    0.8564710600000001 Ti0+
   0.9032527399999991    0.6058988700000000    0.7433578700000000 Ti0+
   0.7803762999999999    0.1190096400000000    0.0299862999999990 Ti0+
   0.1876315699999990    0.0852752700000000    0.9114122200000000 Ti0+
   0.1860876099999990    0.3360034500000000    0.9536598200000000 Ti0+
   0.9372155600000001    0.3363366100000000    0.5114450400000000 Ti0+
   0.7926448199999990    0.7577862999999990    0.1751600500000000 Ti0+
   0.6559400400000001    0.5443481700000000    0.2309057800000000 Ti0+
   0.7338454700000000    0.2474234900000000    0.6534714800000000 Ti0+
   0.9390160099999991    0.3642976300000000    0.7407859800000001 Ti0+
   0.9709365899999991    0.7748611400000001    0.3577269200000000 Ti0+
   0.5660192100000000    0.1397883300000000    0.1167917300000000 Ti0+
   0.4689748599999990    0.5336927700000000    0.1363926900000000 Ti0+
   0.2092534299999990    0.7090443800000000    0.4987403800000000 Ti0+
   0.0767110699999990    0.9825492900000000    0.7478366100000000 Ti0+
   0.7605071299999990    0.1519602900000000    0.4648245100000000 Ti0+
   0.1129096399999990    0.0919938900000000    0.5009967200000001 Ti0+
   0.0688873300000000    0.5969260400000000    0.2646516700000000 Ti0+
   0.2757018899999990    0.6914425100000000    0.2359582999999990 Ti0+
   0.5134459299999991    0.3211843600000000    0.2622460900000000 Ti0+
   0.0149001000000000    0.7990480100000000    0.1424215500000000 Ti0+
