P 
 1.0000000000000000
     5.6276060017849208   -0.7405949076284889    0.0000138177551546
    -0.8844988327703794    6.2218157972817876   -0.0000509980172758
     0.0000643847479003   -0.0001702085383378   19.5831165422371782
 P  
  10
Direct
  0.1465133730536115  0.6837276280159811  0.5873445674816266
  0.1631624072190722  0.3469340172794478  0.5574424427403214
  0.1631638265115764  0.3469283762864602  0.4425557567976530
  0.1465148452738275  0.6837186965219788  0.4126535763150088
  0.2326411098574394  0.9153757650483418  0.4999991038758217
  0.5405139818587308  0.3359026429755352  0.4133267614232486
  0.7607918999370554  0.6717266485332071  0.4420641969414549
  0.7607915426204035  0.6717322645657591  0.5579339894386844
  0.5405123145487780  0.3359117089457094  0.5866714166429177
  0.6160226991195024  0.1260292518275871  0.4999991983432726
