S (mp-1977409)
1.0
   9.4995623889102951    0.0000000000000000    0.0000000000000000
   0.0000000000000000   14.0042689439003798   -0.0563983374907080
   0.0000000000000000    6.8409354950569714   16.5597829232549536
S
80
direct
   0.0103881958381960    0.0000000000000000    0.0000000000000000 S
   0.5136434957956830    0.0000000000000000    0.5000000000000000 S
   0.2112963720928320    0.5000000000000000    0.0000000000000000 S
   0.7137822758114041    0.5000000000000000    0.5000000000000000 S
   0.6413025921081681    0.1267879590492240    0.4501142230011220 S
   0.6413025921081681    0.8732120409507751    0.5498857769988701 S
   0.6812442971013720    0.1854557352007830    0.5372977024332710 S
   0.6812442971013720    0.8145442647992160    0.4627022975667280 S
   0.5251371685138860    0.2902843943768900    0.5298780098031340 S
   0.5251371685138860    0.7097156056231100    0.4701219901968650 S
   0.5860277257924190    0.4292588469565640    0.4441320156683300 S
   0.5860277257924190    0.5707411530434351    0.5558679843316691 S
   0.0589048633557280    0.0706615352331780    0.4532181884983040 S
   0.0589048633557280    0.9293384647668210    0.5467818115016880 S
   0.2082095903541230    0.1600478158034940    0.4785157681967140 S
   0.2082095903541230    0.8399521841965051    0.5214842318032851 S
   0.1157182087624370    0.2202215826801960    0.5546756437105450 S
   0.1157182087624370    0.7797784173198030    0.4453243562894540 S
   0.0142351249389130    0.3532972256569590    0.4841429010510080 S
   0.0142351249389130    0.6467027743430400    0.5158570989489910 S
   0.1584407228010170    0.5288401937466460    0.5450194321976121 S
   0.1584407228010170    0.4711598062533460    0.4549805678023870 S
   0.7858844830464020    0.0447933397372820    0.3028546866122850 S
   0.7858844830464020    0.9552066602627101    0.6971453133877140 S
   0.7162424619862050    0.0144717801409440    0.7794215207409670 S
   0.7162424619862050    0.9855282198590550    0.2205784792590320 S
   0.8712463962294941    0.1114764315339790    0.7890798134007111 S
   0.8712463962294941    0.8885235684660201    0.2109201865992880 S
   0.8414727227862920    0.2522354509770030    0.6973946294674100 S
   0.8414727227862920    0.7477645490229961    0.3026053705325890 S
   0.7004181548064851    0.3331504275345690    0.7375694321901630 S
   0.7004181548064851    0.6668495724654301    0.2624305678098360 S
   0.8114852739236010    0.3963493535958090    0.8057045278026741 S
   0.8114852739236010    0.6036506464041901    0.1942954721973250 S
   0.8974171165619040    0.5320895331456440    0.7277618512042211 S
   0.8974171165619040    0.4679104668543551    0.2722381487957790 S
   0.7472403325532251    0.6446580067600320    0.7075423566686820 S
   0.7472403325532251    0.3553419932399670    0.2924576433313170 S
   0.7633156450613251    0.7023065700555120    0.7972116936352470 S
   0.7633156450613251    0.2976934299444870    0.2027883063647520 S
   0.9004799622173670    0.1751007539888500    0.2408469304174330 S
   0.9004799622173670    0.8248992460111491    0.7591530695825660 S
   0.3768192002296040    0.1110779889186870    0.2857381341446650 S
   0.3768192002296040    0.8889220110813051    0.7142618658553340 S
   0.2203820105752640    0.0123110341345050    0.2808611575571400 S
   0.2203820105752640    0.9876889658654870    0.7191388424428591 S
   0.2818948021682600    0.0474564663610260    0.8025818311365991 S
   0.2818948021682600    0.9525435336389730    0.1974181688634000 S
   0.3995811808218900    0.1770696846551230    0.7430109904010821 S
   0.3995811808218900    0.8229303153448760    0.2569890095989180 S
   0.2641112497456030    0.3004949880467930    0.7022032060426111 S
   0.2641112497456030    0.6995050119532060    0.2977967939573810 S
   0.2441535666709450    0.3588161361681650    0.7912692252730761 S
   0.2441535666709450    0.6411838638318340    0.2087307747269230 S
   0.3964349903454610    0.4695995574341501    0.7731376539720640 S
   0.3964349903454610    0.5304004425658491    0.2268623460279350 S
   0.3148562590799310    0.6063716787703221    0.6941661522946061 S
   0.3148562590799310    0.3936283212296700    0.3058338477053930 S
   0.2005780492237000    0.6700817223238781    0.7608148858254751 S
   0.2005780492237000    0.3299182776761210    0.2391851141745240 S
   0.3393029790449160    0.7483627297463110    0.8047504785444841 S
   0.3393029790449160    0.2516372702536880    0.1952495214555080 S
   0.6123359507018691    0.7798106938312580    0.9451249634114370 S
   0.6123359507018691    0.2201893061687410    0.0548750365885620 S
   0.7038404466481361    0.1597254825246130    0.9785923274235341 S
   0.7038404466481361    0.8402745174753861    0.0214076725764650 S
   0.5536192743852690    0.0707902874829140    0.9534007045236731 S
   0.5536192743852690    0.9292097125170851    0.0465992954763260 S
   0.5114306146546560    0.3534812681659710    0.9842158379209991 S
   0.5114306146546560    0.6465187318340281    0.0157841620790000 S
   0.6559649171899481    0.4711592695897400    0.9549920079921891 S
   0.6559649171899481    0.5288407304102590    0.0450079920078110 S
   0.1765975177850620    0.8135401573227341    0.9639689766760920 S
   0.1765975177850620    0.1864598426772650    0.0360310233239000 S
   0.1377700200048790    0.1268151658821700    0.9493245726805311 S
   0.1377700200048790    0.8731848341178291    0.0506754273194680 S
   0.0205725383402040    0.7082835935432210    0.9723716028344140 S
   0.0205725383402040    0.2917164064567780    0.0276283971655850 S
   0.0836774197149310    0.4307579812962600    0.9428926362204061 S
   0.0836774197149310    0.5692420187037390    0.0571073637795930 S
