S (mp-558964)
1.0
   8.9408723400000003    0.0000000000000000    0.0000000000000000
  -0.0000000000000000   13.5581476300000006    0.0000000000000000
   0.0000000000000000    0.0000000000000000   18.8108378000000016
S
80
direct
   0.2838285600000000    0.9771892200000000    0.5524310500000000 S
   0.6347051800000000    0.7352423300000001    0.2346257200000000 S
   0.7738501000000000    0.2958617100000000    0.5533127300000000 S
   0.2261499000000000    0.7041382900000001    0.4466872700000000 S
   0.5272341300000000    0.8018426900000000    0.3182974600000000 S
   0.0614860200000000    0.1020399600000000    0.0725275800000000 S
   0.2161714400000000    0.9771892200000000    0.4475689500000000 S
   0.7838285600000000    0.0228107800000000    0.5524310500000000 S
   0.5614860200000000    0.3979600400000000    0.4274724200000000 S
   0.7161714400000000    0.5228107800000000    0.0524310500000000 S
   0.7261499000000000    0.7958617100000001    0.0533127300000000 S
   0.8652948200000000    0.2352423300000000    0.7346257200000000 S
   0.8177450400000000    0.4049197100000000    0.1005503900000000 S
   0.6666241800000000    0.7909915000000000    0.4047232000000000 S
   0.8652948200000000    0.7352423300000001    0.7653742800000000 S
   0.3320076700000000    0.4711228200000000    0.5934458500000001 S
   0.1679923300000000    0.4711228200000000    0.4065541500000000 S
   0.8320076700000000    0.5288771800000001    0.5934458500000001 S
   0.9110108600000000    0.0870009600000000    0.7389525300000001 S
   0.6822549600000000    0.9049197100000000    0.6005503900000000 S
   0.7261499000000000    0.2958617100000000    0.4466872700000000 S
   0.2738501000000000    0.7041382900000001    0.5533127300000000 S
   0.6347051800000000    0.2352423300000000    0.2653742800000000 S
   0.5614860200000000    0.8979600400000001    0.0725275800000000 S
   0.7464227200000000    0.0231135100000000    0.1963338200000000 S
   0.4727658700000000    0.1981573100000000    0.6817025400000000 S
   0.0272341300000000    0.1981573100000000    0.3182974600000000 S
   0.7738501000000000    0.7958617100000001    0.9466872700000000 S
   0.7535772800000000    0.5231145100000000    0.6963338200000000 S
   0.7161714400000000    0.0228107800000000    0.4475689500000000 S
   0.8320076700000000    0.0288771800000000    0.9065541500000001 S
   0.7838285600000000    0.5228107800000000    0.9475689500000000 S
   0.6822549600000000    0.4049197100000000    0.8994496100000000 S
   0.5272341300000000    0.3018426900000000    0.1817025400000000 S
   0.2161714400000000    0.4771892200000000    0.0524310500000000 S
   0.3177450400000000    0.0950802900000000    0.3994496100000000 S
   0.3333758200000000    0.2090084999999990    0.5952767999999991 S
   0.5889891400000000    0.0870009600000000    0.2610474700000000 S
   0.6666241800000000    0.2909915000000000    0.0952768000000000 S
   0.3333758200000000    0.7090084999999990    0.9047231999999999 S
   0.9727658700000000    0.3018426900000000    0.8182974600000000 S
   0.8177450400000000    0.9049197100000000    0.3994496100000000 S
   0.7464227200000000    0.5231145100000000    0.3036661800000000 S
   0.2738501000000000    0.2041382900000000    0.9466872700000000 S
   0.0614860200000000    0.6020399600000000    0.4274724200000000 S
   0.1347051800000000    0.2647576700000000    0.2346257200000000 S
   0.9385139800000000    0.8979600400000001    0.9274724200000000 S
   0.9727658700000000    0.8018426900000000    0.6817025400000000 S
   0.0889891400000000    0.9129990400000000    0.2610474700000000 S
   0.2838285600000000    0.4771892200000000    0.9475689500000000 S
   0.2261499000000000    0.2041382900000000    0.0533127300000000 S
   0.3177450400000000    0.5950802900000001    0.1005503900000000 S
   0.3320076700000000    0.9711228200000001    0.9065541500000001 S
   0.3652948200000000    0.2647576700000000    0.7653742800000000 S
   0.6679923300000000    0.5288771800000001    0.4065541500000000 S
   0.1666241800000000    0.2090084999999990    0.4047232000000000 S
   0.2535772800000000    0.9768854900000000    0.8036661800000000 S
   0.1822549600000000    0.5950802900000001    0.8994496100000000 S
   0.6679923300000000    0.0288771800000000    0.0934458500000000 S
   0.1666241800000000    0.7090084999999990    0.0952768000000000 S
   0.4385139800000000    0.1020399600000000    0.9274724200000000 S
   0.2535772800000000    0.4768864900000000    0.6963338200000000 S
   0.7535772800000000    0.0231135100000000    0.8036661800000000 S
   0.2464237200000000    0.9768854900000000    0.1963338200000000 S
   0.8333758200000000    0.7909915000000000    0.5952767999999991 S
   0.4110108600000000    0.9129990400000000    0.7389525300000001 S
   0.2464237200000000    0.4768864900000000    0.3036661800000000 S
   0.8333758200000000    0.2909915000000000    0.9047231999999999 S
   0.0272341300000000    0.6981573100000000    0.1817025400000000 S
   0.9385139800000000    0.3979600400000000    0.5725275800000000 S
   0.4727658700000000    0.6981573100000000    0.8182974600000000 S
   0.0889891400000000    0.4129990400000000    0.2389525300000000 S
   0.1679923300000000    0.9711228200000001    0.0934458500000000 S
   0.3652948200000000    0.7647576700000001    0.7346257200000000 S
   0.4385139800000000    0.6020399600000000    0.5725275800000000 S
   0.4110108600000000    0.4129990400000000    0.7610474700000001 S
   0.1822549600000000    0.0950802900000000    0.6005503900000000 S
   0.1347051800000000    0.7647576700000001    0.2653742800000000 S
   0.5889891400000000    0.5870009600000000    0.2389525300000000 S
   0.9110108600000000    0.5870009600000000    0.7610474700000001 S
