Ba4
1.0
   4.9086900000000000    0.0000000000000000    0.0000000000000003
  -0.0000000000000004    7.2650639999999997    0.0000000000000004
   0.0000000000000000    0.0000000000000000    7.2781339999999997
Ba
4
direct
   0.2558700000000000    0.0000000000000000    0.2500000000000000 Ba0+
   0.7441300000000001    0.0000000000000000    0.7500000000000000 Ba0+
   0.7558700000000000    0.5000000000000000    0.2500000000000000 Ba0+
   0.2441299999999990    0.5000000000000000    0.7500000000000000 Ba0+
