Li3PS4 (mp-2646995)
1.0
   0.0000000000000000    5.5912340000000000    0.0000000000000000
   5.5912340000000000    0.0000000000000000    0.0000000000000000
   2.7956170000000000    2.7956170000000000   -5.1024089999999998
Li P S
3 1 4
direct
   0.5000000000000000    0.5000000000000000    0.0000000000000000 Li
   0.7500000000000000    0.2500000000000000    0.5000000000000000 Li
   0.2500000000000000    0.7500000000000000    0.5000000000000000 Li
   0.0000000000000000    0.0000000000000000    0.0000000000000000 P
   0.6701739999999990    0.0962320000000000    0.2335950000000000 S
   0.0962320000000000    0.6701739999999990    0.2335950000000000 S
   0.3298260000000000    0.3298260000000000    0.7664050000000000 S
   0.9037679999999990    0.9037679999999990    0.7664050000000000 S
