Ba1
1.0
   3.9177175404915383    0.0000000000000000    0.0000000000000002
  -0.0000000000000002    3.9177175404915383    0.0000000000000002
   0.0000000000000000    0.0000000000000000    3.9177175404915383
Ba
1
direct
   0.0000000000000000    0.0000000000000000    0.0000000000000000 Ba0+
