Ba4
1.0
   6.4653300056304879    0.0000000000000000    0.0000000000000004
   0.0000000000000010    6.4653300056304879    0.0000000000000004
   0.0000000000000000    0.0000000000000000    6.4653300056304879
Ba
4
direct
   0.0000000000000000    0.0000000000000000    0.0000000000000000 Ba0+
   0.0000000000000000    0.5000000000000000    0.5000000000000000 Ba0+
   0.5000000000000000    0.0000000000000000    0.5000000000000000 Ba0+
   0.5000000000000000    0.5000000000000000    0.0000000000000000 Ba0+
