GeS2 (mp-572892)
1.0
   6.7648624799999997   -0.0245998600000000    0.0000000000000000
  -0.2205432600000000   11.9118037000000001    0.0000000000000000
   0.0000000000000000    0.0000000000000000   16.2884316300000016
Ge S
16 32
direct
   0.1673958500000000    0.2886127600000000    0.9976494300000001 Ge
   0.8326041500000000    0.2113872400000000    0.4976494300000000 Ge
   0.1673958500000000    0.7886127600000000    0.5023505700000001 Ge
   0.6652318300000000    0.7793814900000000    0.8453756600000000 Ge
   0.8326041500000000    0.7113872400000000    0.0023505700000000 Ge
   0.1600196600000000    0.2811054200000000    0.3469996999999990 Ge
   0.3388847700000000    0.7207832500000000    0.6911670100000000 Ge
   0.8399803400000000    0.7188945800000001    0.6530003000000000 Ge
   0.3388847700000000    0.2207832500000000    0.8088329900000000 Ge
   0.3347681700000000    0.2206185100000000    0.1546243400000000 Ge
   0.6611152300000001    0.7792167500000000    0.1911670100000000 Ge
   0.8399803400000000    0.2188945800000000    0.8469996999999990 Ge
   0.1600196600000000    0.7811054200000001    0.1530003000000000 Ge
   0.3347681700000000    0.7206185100000000    0.3453756600000000 Ge
   0.6611152300000001    0.2792167500000000    0.3088329900000000 Ge
   0.6652318300000000    0.2793814900000000    0.6546243400000000 Ge
   0.6604935000000000    0.6338320300000000    0.1060774100000000 S
   0.6574996500000000    0.7150513200000000    0.3191599000000000 S
   0.5841349100000001    0.1019501200000000    0.8298489200000000 S
   0.3395065000000000    0.8661679700000000    0.6060774100000000 S
   0.8447115600000000    0.7941582200000000    0.5281158700000000 S
   0.8386970800000000    0.3583047100000000    0.7570883700000001 S
   0.8386970800000000    0.8583047100000000    0.7429116300000000 S
   0.0880442800000000    0.1013558100000000    0.8303496200000000 S
   0.2782446700000000    0.1229459000000000    0.0402120300000000 S
   0.7747758600000000    0.6136465300000000    0.8882751900000000 S
   0.7217553300000000    0.3770541000000000    0.5402120300000001 S
   0.7217553300000000    0.8770540999999999    0.9597879700000000 S
   0.3425003500000000    0.2849486800000000    0.6808400999999999 S
   0.1613029200000000    0.6416952900000000    0.2429116300000000 S
   0.0880442800000000    0.6013558100000000    0.6696503800000000 S
   0.9119557200000000    0.8986441900000001    0.1696503800000000 S
   0.1552884400000000    0.2058417800000000    0.4718841300000000 S
   0.3395065000000000    0.3661679700000000    0.8939225900000001 S
   0.6574996500000000    0.2150513200000000    0.1808401000000000 S
   0.9119557200000000    0.3986441900000000    0.3303496200000000 S
   0.8447115600000000    0.2941582200000000    0.9718841300000001 S
   0.2252241400000000    0.3863534700000000    0.1117248100000000 S
   0.2782446700000000    0.6229458999999991    0.4597879700000000 S
   0.5841349100000001    0.6019501200000000    0.6701510800000000 S
   0.7747758600000000    0.1136465300000000    0.6117248100000000 S
   0.4158650900000000    0.8980498800000000    0.1701510800000000 S
   0.1552884400000000    0.7058417800000000    0.0281158700000000 S
   0.3425003500000000    0.7849486800000001    0.8191598999999991 S
   0.2252241400000000    0.8863534700000000    0.3882751900000000 S
   0.6604935000000000    0.1338320300000000    0.3939225900000000 S
   0.1613029200000000    0.1416952900000000    0.2570883700000000 S
   0.4158650900000000    0.3980498800000000    0.3298489200000000 S
