O12
1.0
   4.7060009999999997    0.0000000000000000    0.0000000000000003
  -0.0000000000000003    4.7060009999999997    0.0000000000000003
   0.0000000000000000    0.0000000000000000    4.9888690000000002
O
12
direct
   0.5955690000000000    0.2649710000000000    0.5071169999999990 O0+
   0.4044310000000000    0.7350289999999990    0.0071169999999990 O0+
   0.7649710000000001    0.9044310000000000    0.2571169999999990 O0+
   0.2350290000000000    0.0955690000000000    0.7571169999999990 O0+
   0.7350289999999990    0.4044310000000000    0.9928830000000011 O0+
   0.2649710000000000    0.5955690000000000    0.4928830000000000 O0+
   0.9044310000000000    0.7649710000000001    0.7428830000000011 O0+
   0.0955690000000000    0.2350290000000000    0.2428830000000000 O0+
   0.9693500000000000    0.0306499999999990    0.7500000000000000 O0+
   0.0306499999999990    0.9693500000000000    0.2500000000000000 O0+
   0.5306500000000001    0.5306500000000001    0.5000000000000000 O0+
   0.4693500000000000    0.4693499999999990    0.0000000000000000 O0+
