P (mp-7245)
1.0
   3.4503368500000002    0.0000000000000000    1.3848714100000001
   1.4502986700000000    2.9398509600000002    1.3772588900000000
   0.6073056100000001    0.4252875200000000    3.4775346599999999
P
2
direct
   0.1966908900000000    0.2500000000000000    0.7500000000000000 P
   0.8033091100000000    0.7500000000000000    0.2500000000000000 P
