S (mp-561370)
1.0
   8.6106811000000008    0.0000000000000000    0.0000000000000000
   0.0000000000000000   15.4695603399999992    0.0000000000000000
   0.0000000000000000    0.0000000000000000   18.6218740599999997
S
88
direct
   0.9769015600000001    0.4126316900000000    0.6131393700000000 S
   0.2933558600000000    0.2632986400000000    0.0189280900000000 S
   0.6630972900000001    0.0833985400000000    0.9108905300000000 S
   0.4714562800000000    0.1606138100000000    0.7750432100000000 S
   0.9119715100000000    0.4252955300000000    0.0085137800000000 S
   0.4454237000000000    0.8530098400000000    0.6092659300000001 S
   0.5790387500000000    0.1750771600000000    0.3780346400000000 S
   0.5489411000000000    0.5782772300000000    0.8606039400000001 S
   0.6400137800000000    0.7244108900000000    0.1191922900000000 S
   0.4082682800000000    0.2181398000000000    0.3109388800000000 S
   0.9164411100000001    0.5334953400000000    0.5760451400000001 S
   0.5361324700000000    0.4458180200000000    0.0522792300000000 S
   0.4510589000000000    0.0782772300000000    0.8606039400000001 S
   0.5489411000000000    0.9217227700000000    0.3606049400000000 S
   0.2689495800000000    0.8749393100000000    0.0692350100000000 S
   0.3369027100000000    0.5833985400000000    0.9108905300000000 S
   0.1375479900000000    0.9748022300000000    0.2670070700000000 S
   0.0835588900000000    0.4665046600000000    0.0760451400000000 S
   0.5285437200000001    0.8393861900000000    0.2750432100000000 S
   0.0526098700000000    0.3944441600000000    0.2778556900000000 S
   0.5917317200000000    0.7181398000000000    0.3109388800000000 S
   0.7310504200000000    0.3749393100000000    0.0692350100000000 S
   0.7598747600000000    0.3758024300000000    0.8175756400000000 S
   0.0835588900000000    0.0334953400000000    0.5760451400000001 S
   0.2689495800000000    0.6250606900000000    0.5692350100000000 S
   0.9486297600000000    0.3281974500000000    0.5291808300000000 S
   0.7598747600000000    0.1241975700000000    0.3175756400000000 S
   0.0526098700000000    0.1055558400000000    0.7778556900000000 S
   0.5068418600000000    0.4753734300000000    0.6417165200000000 S
   0.9549796200000000    0.3054990600000000    0.8349801100000001 S
   0.9119715100000000    0.0747044700000000    0.5085137800000000 S
   0.5361324700000000    0.0541819800000000    0.5522792300000000 S
   0.8624520100000000    0.0251977700000000    0.7670070700000000 S
   0.4510589000000000    0.4217227700000000    0.3606049400000000 S
   0.3599862200000000    0.2244108900000000    0.1191922900000000 S
   0.9164411100000001    0.9665046600000000    0.0760451400000000 S
   0.9473901300000001    0.8944441600000000    0.2778556900000000 S
   0.1568949100000000    0.1675384600000000    0.9758022900000001 S
   0.5068418600000000    0.0246265700000000    0.1417165200000000 S
   0.1568949100000000    0.3324615400000000    0.4758022900000000 S
   0.4454237000000000    0.6469901600000000    0.1092659300000000 S
   0.2036048800000000    0.0134195500000000    0.3675395200000000 S
   0.4931581400000000    0.5246265700000000    0.1417165200000000 S
   0.4209612500000000    0.8249228400000000    0.8780346400000000 S
  -0.0009814400000000    0.2728750400000000    0.2453322700000000 S
   0.4209612500000000    0.6750771600000001    0.3780346400000000 S
   0.0009814400000000    0.7271249600000000    0.7453322700000000 S
   0.0880284900000000    0.5747044700000000    0.5085137800000000 S
   0.0230984400000000    0.9126316900000000    0.6131393700000000 S
   0.0450203800000000    0.6945009400000001    0.3349801100000000 S
   0.0513702400000000    0.8281974500000000    0.5291808300000000 S
   0.6630972900000001    0.4166014600000000    0.4108905300000000 S
   0.4931581400000000    0.9753734300000000    0.6417165200000000 S
   0.6400137800000000    0.7755891100000000    0.6191922900000000 S
   0.0230984400000000    0.5873683100000000    0.1131393700000000 S
   0.9473901300000001    0.6055558400000001    0.7778556900000000 S
   0.5285437200000001    0.6606138100000000    0.7750432100000000 S
   0.7310504200000000    0.1250606900000000    0.5692350100000000 S
   0.8431050900000000    0.6675384600000001    0.9758022900000001 S
   0.5545763000000000    0.1469901600000000    0.1092659300000000 S
   0.8624520100000000    0.4748022300000000    0.2670070700000000 S
   0.4082682800000000    0.2818602000000000    0.8109388800000000 S
   0.5790387500000000    0.3249228400000000    0.8780346400000000 S
   0.3599862200000000    0.2755891100000000    0.6191922900000000 S
   0.7066441400000000    0.7367013600000000    0.5189280900000001 S
   0.7066441400000000    0.7632986400000000    0.0189280900000000 S
   0.9549796200000000    0.1945009400000000    0.3349801100000000 S
  -0.0009814400000000    0.2271249600000000    0.7453322700000000 S
   0.4638675300000000    0.5541819800000000    0.5522792300000000 S
   0.0880284900000000    0.9252955300000000    0.0085137800000000 S
   0.3369027100000000    0.9166014600000000    0.4108905300000000 S
   0.4638675300000000    0.9458180200000000    0.0522792300000000 S
   0.7963951200000000    0.5134195500000001    0.3675395200000000 S
   0.2401252400000000    0.8758024300000000    0.8175756400000000 S
   0.0009814400000000    0.7728750400000001    0.2453322700000000 S
   0.2933558600000000    0.2367013600000000    0.5189280900000001 S
   0.7963951200000000    0.9865804500000001    0.8675395200000000 S
   0.0513702400000000    0.6718025500000000    0.0291808300000000 S
   0.1375479900000000    0.5251977700000000    0.7670070700000000 S
   0.5917317200000000    0.7818602000000000    0.8109388800000000 S
   0.2036048800000000    0.4865804500000000    0.8675395200000000 S
   0.9769015600000001    0.0873683100000000    0.1131393700000000 S
   0.4714562800000000    0.3393861900000000    0.2750432100000000 S
   0.2401252400000000    0.6241975700000000    0.3175756400000000 S
   0.0450203800000000    0.8054990600000000    0.8349801100000001 S
   0.8431050900000000    0.8324615400000001    0.4758022900000000 S
   0.9486297600000000    0.1718025500000000    0.0291808300000000 S
   0.5545763000000000    0.3530098400000000    0.6092659300000001 S
