S (mp-557869)
1.0
  10.9925925299999996    0.0000000000000000   -1.1581296599999999
   0.0000000000000000   10.9881982199999992    0.0000000000000000
  -0.0795995800000000    0.0000000000000000   11.2140846900000000
S
48
direct
   0.7824211400000001    0.6899503300000001    0.7278554600000000 S
   0.0421945800000000    0.9823160400000001    0.9566566700000000 S
   0.2175788600000000    0.1899503300000000    0.2721445400000000 S
   0.3494736900000000    0.9193361100000000    0.2462854600000000 S
   0.5397271600000000    0.8471280500000000    0.9461321700000001 S
   0.2721110200000000    0.1401322700000000    0.7439222100000000 S
   0.1433610200000000    0.4119427700000000    0.7746438200000000 S
   0.2369426600000000    0.8116515500000000    0.1332450900000000 S
   0.2454693700000000    0.0215292600000000    0.3488071800000000 S
   0.1646907300000000    0.5506771300000000    0.3288425000000000 S
   0.7034982100000000    0.9368680800000000    0.9523781700000000 S
   0.2429356200000000    0.3089431500000000    0.6685788200000000 S
   0.9578054200000000    0.4823160400000000    0.0433433300000000 S
   0.2603778200000000    0.5192931100000000    0.8835286100000000 S
   0.8566389800000000    0.9119427700000000    0.2253561800000000 S
   0.9507982400000000    0.6902702100000000    0.8252711800000000 S
   0.0697844000000000    0.1624392000000000    0.9973398600000000 S
   0.8353092700000000    0.0506771300000000    0.6711575000000000 S
   0.0614774800000000    0.7664062600000000    0.5011456100000000 S
   0.4503550000000000    0.6174209300000000    0.4431520200000000 S
   0.6505263100000001    0.4193361100000000    0.7537145400000000 S
   0.3478207100000000    0.8335548400000000    0.6129532500000000 S
   0.9385225200000000    0.2664062600000000    0.4988543900000000 S
   0.5565551200000000    0.6392662600000000    0.1640227300000000 S
   0.0495918000000000    0.5856037600000000    0.4558879700000000 S
   0.7278889800000000    0.6401322700000001    0.2560777900000000 S
   0.7927626100000000    0.3947364900000000    0.0310030700000000 S
   0.0492017600000000    0.1902712100000000    0.1747288200000000 S
   0.2965017900000000    0.4368680800000000    0.0476218300000000 S
   0.9504081999999990    0.0856037600000000    0.5441120300000000 S
   0.3247925400000000    0.4811178000000000    0.4116729000000000 S
   0.4517377700000000    0.6789013500000000    0.6158037600000000 S
   0.5705279800000000    0.6671159900000000    0.9854250700000000 S
   0.7570643800000000    0.8089431500000001    0.3314211800000000 S
   0.4294720200000000    0.1671159900000000    0.0145749300000000 S
   0.7545306300000000    0.5215292600000000    0.6511928200000000 S
   0.6521792900000000    0.3335548400000000    0.3870467500000000 S
   0.7396221800000000    0.0192931100000000    0.1164713900000000 S
   0.1783305000000000    0.7870870700000000    0.6552943900000000 S
   0.7630573400000000    0.3116515500000000    0.8667549100000000 S
   0.9302155999999990    0.6624392000000000    0.0026601400000000 S
   0.4434448800000000    0.1392662600000000    0.8359772700000000 S
   0.4602728400000000    0.3471280500000000    0.0538678300000000 S
   0.6752074600000000    0.9811177999999990    0.5883271000000000 S
   0.5496449999999991    0.1174209300000000    0.5568479800000000 S
   0.8216694999999991    0.2870870700000000    0.3447056100000000 S
   0.5482622300000000    0.1789013500000000    0.3841962400000000 S
   0.2072373900000000    0.8947364900000000    0.9689969300000000 S
