S 
 1.0000000000000000
     8.9894794719030511    0.0000007100398658   -0.0000049675418724
    -4.4947379611218370    7.7851192764200281    0.0000049222529185
    -0.0000027671132751    0.0000015684636437    4.3379600046176563
 S  
   9
Direct
  0.0947944353182572  0.0947944346487847  0.5000000049786348
  0.4369012324542797  0.6876821412802491  0.7335886733468273
  0.6876821415652021  0.4369012319662873  0.2664113278028529
  0.9052055669540141 -0.0000000093072448  0.1666666270656727
  0.2507817537921969  0.5630987271819743  0.0669215868608553
  0.3123178702792125  0.7492182813166256  0.4002555397174555
  0.5630987262870755  0.2507817536902084  0.9330784154720263
  0.7492182819875556  0.3123178713571418  0.5997444568000001
 -0.0000000086377794  0.9052055678659764  0.8333333679556653
