Ba1
1.0
   2.1558068489628348   -3.7339669937085951    0.0000000000000000
   2.1558068489628348    3.7339669937085951    0.0000000000000000
   0.0000000000000000    0.0000000000000000    3.9134133000000002
Ba
1
direct
   0.0000000000000000    0.0000000000000000    0.0000000000000000 Ba0+
