P 
 1.0000000000000000
     3.5971193608829304    0.0000002307604890    1.4437857327753565
     1.5338610896783342    2.9049628870975179    1.3813754726461709
     0.6946882177529252    0.4017948029291547    3.4721327926102710
 P  
   2
Direct
  0.1951932797943797  0.2500000046035887  0.7500000019854357
  0.8048067202056189  0.7499999953964109  0.2499999980145651
