P (mp-568348)
1.0
   9.2088442399999995    0.0000000000000000    0.0000000000000000
   0.0000000000000000    9.1506043899999998   -1.2887236900000001
   0.0000000000000000    0.0128595700000000   22.9625161999999996
P
84
direct
   0.6089262900000000    0.9659120600000001    0.9219238600000000 P
   0.5938509900000000    0.2009061200000000    0.9515407400000000 P
   0.2000031400000000    0.6203218800000000    0.3212920700000000 P
   0.8376374400000001    0.5512636700000000    0.5506601000000000 P
   0.3560802900000000    0.0219390300000000    0.5353362800000000 P
   0.8615782300000000    0.7113006500000000    0.9209891000000000 P
   0.2164628100000000    0.6942294600000000    0.6169823600000001 P
   0.6784750700000001    0.1193106999999990    0.3302239600000000 P
   0.6159711300000000    0.5284492600000000    0.6733941800000001 P
   0.9007786300000000    0.8136605600000000    0.6744710700000001 P
   0.3652136500000000    0.2577065700000000    0.5667807500000001 P
   0.0342851000000000    0.9461124800000000    0.1178366400000000 P
   0.0534619400000000    0.8680713300000000    0.8216378600000001 P
   0.2000031400000000    0.8796781200000000    0.1787079300000000 P
   0.5495464900000000    0.3926285300000000    0.8313839700000000 P
   0.6842384400000000    0.7539016800000000    0.7029429700000001 P
   0.8615782300000000    0.7886993500000000    0.5790109000000000 P
   0.0992213700000000    0.1863394400000000    0.3255289300000000 P
   0.3560802900000000    0.4780609700000000    0.9646637200000000 P
   0.6439197100000000    0.5219390300000000    0.0353362800000000 P
   0.9657148999999990    0.0538875200000000    0.8821633600000001 P
   0.1322652500000000    0.4690399300000000    0.9310581000000000 P
   0.0342851000000000    0.5538875200000000    0.3821633600000000 P
   0.4855234800000000    0.9194962200000000    0.6042534700000000 P
   0.9465380600000001    0.3680713300000000    0.3216378600000000 P
   0.2802747000000000    0.8054705900000000    0.3831622500000000 P
   0.9465380600000001    0.1319286700000000    0.1783621400000000 P
   0.4504535100000000    0.8926285300000000    0.3313839700000000 P
   0.3910737100000000    0.0340879400000000    0.0780761400000000 P
   0.3840288700000000    0.0284492600000000    0.1733941800000000 P
   0.5938509900000000    0.2990938800000000    0.5484592600000000 P
   0.8677347500000000    0.9690399300000000    0.4310581000000000 P
   0.4504535100000000    0.6073714700000000    0.1686160300000000 P
   0.7197253000000000    0.3054705900000000    0.8831622500000000 P
   0.9657148999999990    0.4461124800000000    0.6178366400000000 P
   0.3544910500000000    0.2485010900000000    0.6634217100000001 P
   0.6455089500000000    0.7514989100000000    0.3365782900000000 P
   0.1322652500000000    0.0309590700000000    0.5689419000000000 P
   0.8677347500000000    0.5309600700000000    0.0689419000000000 P
   0.1785901900000000    0.4254733600000000    0.8350230999999990 P
   0.3910737100000000    0.4659120600000000    0.4219238600000000 P
   0.8376374400000001    0.9487363300000000    0.9493398999999991 P
   0.3157615600000000    0.2460983200000000    0.2970570300000000 P
   0.8214098100000000    0.9254733600000000    0.3350230999999990 P
   0.1623625600000000    0.0512636700000000    0.0506601000000000 P
   0.6455089500000000    0.7485010900000000    0.1634217100000000 P
   0.3652136500000000    0.2422934300000000    0.9332192500000001 P
   0.4061490100000000    0.7009061200000000    0.4515407400000000 P
   0.6784750700000001    0.3806893000000000    0.1697760400000000 P
   0.4061490100000000    0.7990938800000000    0.0484592600000000 P
   0.2164628100000000    0.8057705400000000    0.8830176400000000 P
   0.7835371900000000    0.3057705400000000    0.3830176400000000 P
   0.7999968600000000    0.1203218800000000    0.8212920700000000 P
   0.3215249300000000    0.8806893000000000    0.6697760400000000 P
   0.6439197100000000    0.9780609700000000    0.4646637200000000 P
   0.6842384400000000    0.7460983200000000    0.7970570300000001 P
   0.4855234800000000    0.5805037800000000    0.8957465300000000 P
   0.7835371900000000    0.1942294600000000    0.1169823600000000 P
   0.3544910500000000    0.2514989100000000    0.8365782900000001 P
   0.2802747000000000    0.6945294100000000    0.1168377500000000 P
   0.0992213700000000    0.3136605600000000    0.1744710700000000 P
   0.7197253000000000    0.1945294100000000    0.6168377500000000 P
   0.5495464900000000    0.1073714700000000    0.6686160300000000 P
   0.9134702000000000    0.2029573999999990    0.4508540500000000 P
   0.6347863500000001    0.7577065700000000    0.0667807500000000 P
   0.3157615600000000    0.2539016800000000    0.2029429700000000 P
   0.3215249300000000    0.6193107000000000    0.8302239600000000 P
   0.6159711300000000    0.9715507400000000    0.8266058200000000 P
   0.0865297999999990    0.7029574000000000    0.9508540500000000 P
   0.6347863500000001    0.7422934300000000    0.4332192500000000 P
   0.9007786300000000    0.6863394400000000    0.8255289300000000 P
   0.1785901900000000    0.0745266400000000    0.6649769000000000 P
   0.1384217700000000    0.2886993500000000    0.0790109000000000 P
   0.5144765200000000    0.4194972200000000    0.1042534700000000 P
   0.5144765200000000    0.0805027800000000    0.3957465300000000 P
   0.0865297999999990    0.7970425999999990    0.5491459500000000 P
   0.1384217700000000    0.2113006500000000    0.4209891000000000 P
   0.8214098100000000    0.5745266400000000    0.1649768999999990 P
   0.1623625600000000    0.4487363300000000    0.4493398999999990 P
   0.9134702000000000    0.2970426000000000    0.0491459500000000 P
   0.3840288700000000    0.4715507400000000    0.3266058200000000 P
   0.0534619400000000    0.6319286700000000    0.6783621400000001 P
   0.7999968600000000    0.3796781200000000    0.6787079300000000 P
   0.6089262900000000    0.5340879400000000    0.5780761400000000 P
