P 
 1.0000000000000000
     5.3900042837972393    0.0000002563672056    3.1119208869498793
     1.7966687134114709    5.0817433390579598    3.1119208869498638
    -0.0000000047087195   -0.0000000033295875    6.2238417932566978
 P  
   1
Direct
  0.0000000000000000  0.0000000000000000  0.0000000000000000
