Ba
 1.0000000000000000
     3.4923450877762647   -6.0489191295921012   -0.0000000000000154
     3.4923450877762576    6.0489191295921074    0.0000000000000050
    -0.0000000000000058    0.0000000000000066    3.9975987446642391
 Ba 
   2
Direct
  0.3333333333333340  0.6666666666666657  0.4999999999999998
  0.6666666666666667  0.3333333333333329  0.4999999999999998
