Ba2
1.0
   3.4980335367549840   -6.0587718122394856    0.0000000000000000
   3.4980335367549840    6.0587718122394856    0.0000000000000000
   0.0000000000000000    0.0000000000000000    3.9093935499999999
Ba
2
direct
   0.3333333333333330    0.6666666666666661    0.5000000000000000 Ba0+
   0.6666666666666661    0.3333333333333330    0.5000000000000000 Ba0+
