Ba3 Ti3 O9
1.0
   2.8482561214362523   -4.9333243152966588    0.0000000000000000
   2.8482561214362523    4.9333243152966588    0.0000000000000000
   0.0000000000000000    0.0000000000000000    7.0066809980161944
Ba Ti O
3 3 9
direct
   0.3333333333333330    0.6666666666666661    0.6668127066666660 Ba2+
   0.0000000000000000    0.0000000000000000    0.0001460399999990 Ba2+
   0.6666666666666661    0.3333333333333330    0.3334793733333331 Ba2+
   0.3333333333333330    0.6666666666666661    0.1800043766666660 Ti4+
   0.0000000000000000    0.0000000000000000    0.5133377100000001 Ti4+
   0.6666666666666661    0.3333333333333330    0.8466710433333331 Ti4+
   0.1697445600000000    0.8302554400000001    0.3192057500000000 O2-
   0.1697445600000000    0.3394891200000000    0.3192057500000000 O2-
   0.6605108799999990    0.8302554400000001    0.3192057500000000 O2-
   0.8364112266666661    0.1635887733333330    0.6525390833333331 O2-
   0.8364112266666661    0.6728224533333330    0.6525390833333331 O2-
   0.3271775466666660    0.1635887733333330    0.6525390833333331 O2-
   0.5030778933333331    0.4969221066666660    0.9858724166666660 O2-
   0.5030778933333331    0.0061557866666660    0.9858724166666660 O2-
   0.9938442133333331    0.4969221066666660    0.9858724166666660 O2-
