Li (mp-604313)
1.0
   4.4544410000000001    0.0000000000000000   -0.0000010000000000
   0.0000000000000000    4.4544410000000001   -0.0000010000000000
  -0.0000010000000000   -0.0000010000000000    4.4544389999999998
Li
4
direct
   0.8745680000000000    0.1254320000000000    0.6254320000000000 Li
   0.3745679999999990    0.3745679999999990    0.3745679999999990 Li
   0.1254320000000000    0.6254320000000000    0.8745680000000000 Li
   0.6254320000000000    0.8745680000000000    0.1254320000000000 Li
