P (mp-674158)
1.0
   4.8119878900000002   -0.0000000000000000    2.7782026599999998
   1.6039962999999999    4.5367851300000002    2.7782026599999998
   0.0000000000000000    0.0000000000000000    5.5564053300000005
P
1
direct
  -0.0000000000000000    0.0000000000000000    0.0000000000000000 P
