O16
1.0
   0.0000000000000000    8.9045948910944954    0.0000000000000000
   7.0532558999999999    0.0000000000000000    0.0000000000000000
   0.0000000000000000   -2.0214978180428291   -3.7454635980672313
O
16
direct
   0.0372500150000000    0.7306118550000000    0.9108928900000001 O0+
   0.9627499850000001    0.7306118550000000    0.0891071099999990 O0+
   0.9627499850000001    0.2693881449999990    0.0891071099999990 O0+
   0.0372500150000000    0.2693881449999990    0.9108928900000001 O0+
   0.7701378700000000    0.5000000000000000    0.3813572699999990 O0+
   0.2298621300000000    0.5000000000000000    0.6186427300000000 O0+
   0.6952419800000000    0.5000000000000000    0.5587862500000000 O0+
   0.3047580199999990    0.5000000000000000    0.4412137499999990 O0+
   0.5372500150000000    0.2306118550000000    0.9108928900000001 O0+
   0.4627499850000000    0.2306118550000000    0.0891071099999990 O0+
   0.4627499850000000    0.7693881450000001    0.0891071099999990 O0+
   0.5372500150000000    0.7693881450000001    0.9108928900000001 O0+
   0.2701378700000000    0.0000000000000000    0.3813572699999990 O0+
   0.7298621299999991    0.0000000000000000    0.6186427300000000 O0+
   0.1952419800000000    0.0000000000000000    0.5587862500000000 O0+
   0.8047580200000000    0.0000000000000000    0.4412137499999990 O0+
