Ti2
1.0
   3.2516359454146309    0.0000000000000000    0.0000000000000002
  -0.0000000000000002    3.2516359454146309    0.0000000000000002
   0.0000000000000000    0.0000000000000000    3.2516359454146309
Ti
2
direct
   0.0000000000000000    0.0000000000000000    0.0000000000000000 Ti0+
   0.5000000000000000    0.5000000000000000    0.5000000000000000 Ti0+
